link,year,disambiguation,length,pageviews,revisions,title,score
Adolf_Hitler,1889,False,807728,889396,25552,Adolf Hitler,0.9829901995579612
Franklin_D._Roosevelt,1882,False,923149,478502,9998,Franklin D. Roosevelt,0.9400823891466514
Harry_S._Truman,1884,False,724014,236157,10253,Harry S. Truman,0.9182316823458401
Charlie_Chaplin,1889,False,665121,327570,7438,Charlie Chaplin,0.9133730815571963
Benito_Mussolini,1883,False,621818,229477,8422,Benito Mussolini,0.907541940860875
Pablo_Picasso,1881,False,365986,256564,5887,Pablo Picasso,0.8860186110597492
George_Patton,1885,False,372052,145840,8446,George S. Patton,0.8847902147015331
Srinivasa_Aaiyangar_Ramanujan,1887,False,325638,335173,4791,Srinivasa Ramanujan,0.8820401867874477
Douglas_MacArthur,1880,False,649306,127317,5942,Douglas MacArthur,0.881509345433133
Mustafa_Kemal_Atatürk,1881,False,594535,87592,8190,Mustafa Kemal Atatürk,0.880430594976583
Jawaharlal_Nehru,1889,False,456348,172412,5038,Jawaharlal Nehru,0.8759088086790674
Franz_Kafka,1883,False,573915,111137,5774,Franz Kafka,0.8744437873906598
Eleanor_Roosevelt,1884,False,480338,121344,5867,Eleanor Roosevelt,0.873549246633245
Helen_Keller,1880,False,290233,217179,3917,Helen Keller,0.8623428278510576
Chiang_Kai-shek,1887,False,590310,92015,4293,Chiang Kai-shek,0.859709838407058
Coco_Chanel,1883,False,274670,108796,5384,Coco Chanel,0.8557836297725286
T._S._Eliot,1888,False,306118,82812,5149,T. S. Eliot,0.8496952870875855
John_Maynard_Keynes,1883,False,522320,64385,4320,John Maynard Keynes,0.8480400969332191
Ludwig_Wittgenstein,1889,False,491972,50363,5202,Ludwig Wittgenstein,0.8463717459521177
Niels_Bohr,1885,False,367560,63944,4989,Niels Bohr,0.8456643659364796
Georgia_O'Keeffe,1887,False,290347,66618,5161,Georgia O'Keeffe,0.8429357123404838
T._E._Lawrence,1888,False,290921,91043,3663,T. E. Lawrence,0.8393302849775736
Ezra_Pound,1885,False,323199,43125,5938,Ezra Pound,0.8377532726913848
Martin_Heidegger,1889,False,382467,45791,4848,Martin Heidegger,0.8363677500484846
James_Joyce,1882,False,285528,72097,3938,James Joyce,0.8355598858867962
Alexander_Fleming,1881,False,174391,64948,5886,Alexander Fleming,0.8352695762339675
Diego_Rivera,1886,False,235799,63696,4642,Diego Rivera,0.8338147260799157
Virginia_Woolf,1882,False,269913,105161,2941,Virginia Woolf,0.8333585852080782
Igor_Stravinsky,1882,False,343275,48280,4304,Igor Stravinsky,0.831721106476071
Marcus_Garvey,1887,False,215587,77383,3868,Marcus Garvey,0.8307489255482889
Ty_Cobb,1886,False,443896,49271,3078,Ty Cobb,0.8257567447071129
Jim_Thorpe,1887,False,326863,51261,3410,Jim Thorpe,0.8244369217679428
Tojo_Hideki,1884,False,313090,43801,3243,Hideki Tojo,0.81763095479492
Clement_Attlee,1883,False,539337,40357,2577,Clement Attlee,0.8175565675260331
Bernard_Montgomery,1887,False,448059,33125,3201,Bernard Montgomery,0.8163481679827851
Marc_Chagall,1887,False,306029,37031,3242,Marc Chagall,0.8126014307662394
Éamon_de_Valera,1882,False,418076,27224,3451,Éamon de Valera,0.8119804330410811
Le_Corbusier,1887,False,308709,50854,2413,Le Corbusier,0.810783319007912
Pope_John_XXIII,1881,False,366798,34886,2644,Pope John XXIII,0.8073552753479488
"Joseph_P._Kennedy,_Sr.",1888,False,286298,39518,2329,Joseph P. Kennedy Sr.,0.8014548468232173
Sarvepalli_Radhakrishnan,1888,False,268402,48329,1967,Sarvepalli Radhakrishnan,0.7991961912044574
Chandrasekhara_Venkata_Raman,1888,False,176614,80702,1759,C. V. Raman,0.798929748409098
Erwin_Schrödinger,1887,False,189061,46080,2381,Erwin Schrödinger,0.7979857133330497
George_Marshall,1880,False,401049,33559,1999,George Marshall,0.7977970496641152
D._H._Lawrence,1885,False,209402,46017,2231,D. H. Lawrence,0.7976900135751199
Marcel_Duchamp,1887,False,217875,45261,2206,Marcel Duchamp,0.797654991160478
Irving_Berlin,1888,False,295702,28443,2435,Irving Berlin,0.7947677095485987
Al_Jolson,1886,False,271689,29314,2445,Al Jolson,0.7941347135091864
Kahlil_Gibran,1883,False,167801,46480,2260,Kahlil Gibran,0.7938959954759636
Edwin_Hubble,1889,False,159656,27560,3459,Edwin Hubble,0.7934464512517426
David_Ben-Gurion,1886,False,250423,30606,2393,David Ben-Gurion,0.792994914933985
Erich_von_Manstein,1887,False,336349,25422,2343,Erich von Manstein,0.7926817324781674
Pio_of_Pietrelcina,1887,False,262878,30780,2206,Padre Pio,0.791202064222392
Rube_Goldberg,1883,False,137533,22282,4280,Rube Goldberg,0.7909352303674989
Alfred_Wegener,1880,False,130021,25932,3832,Alfred Wegener,0.790650879757849
P._G._Wodehouse,1881,False,299195,27035,2178,P. G. Wodehouse,0.7896431842423172
Isoroku_Yamamoto,1884,False,173210,38249,2246,Isoroku Yamamoto,0.7893646716931737
António_de_Oliveira_Salazar,1889,False,355537,22771,2208,António de Oliveira Salazar,0.788482014234558
George_Mallory,1886,False,178255,41830,1921,George Mallory,0.7866081314592897
Edward_Hopper,1882,False,195982,32991,2026,Edward Hopper,0.7843235047544767
Vinayak_Damodar_Savarkar,1883,False,273317,28271,1899,Vinayak Damodar Savarkar,0.7842411515293451
John_Barrymore,1882,False,331861,29593,1617,John Barrymore,0.7830416490126197
Mohammad_Mosaddegh,1882,False,236574,25302,2084,Mohammad Mosaddegh,0.7818524523194019
Mohammad_Mosaddegh,1882,False,236574,25302,2084,Mohammad Mosaddegh,0.7818524523194019
Smedley_Butler,1881,False,269441,24014,1987,Smedley Butler,0.7811565001522671
Béla_Bartók,1881,False,186230,24172,2190,Béla Bartók,0.7777412526580809
Robert_H._Goddard,1882,False,296839,14430,2593,Robert H. Goddard,0.7773212453772418
Emmy_Noether,1882,False,328005,15588,2276,Emmy Noether,0.7770543451069237
Bela_Lugosi,1882,False,153113,36642,1753,Bela Lugosi,0.7768817229713488
Alvin_Cullum_York,1887,False,217291,19434,2328,Alvin York,0.776703279347272
John_Logie_Baird,1888,False,138581,26323,2247,John Logie Baird,0.7750477817186102
Roscoe_Arbuckle,1887,False,218129,27932,1638,Roscoe Arbuckle,0.7742769059005727
Amedeo_Modigliani,1884,False,196963,29860,1635,Amedeo Modigliani,0.7740204909621247
Ion_Antonescu,1882,False,676657,14549,1577,Ion Antonescu,0.7740115587574945
Vidkun_Quisling,1887,False,299886,19504,1780,Vidkun Quisling,0.7733455974193525
Ante_Pavelić,1889,False,409531,11121,2443,Ante Pavelić,0.7729020630106419
Shoeless_Joe_Jackson,1887,False,134890,35777,1707,Shoeless Joe Jackson,0.7727558661257663
H._L._Mencken,1880,False,168063,26381,1842,H. L. Mencken,0.7720287232634344
Karl_I_of_Austria,1887,False,322853,27087,1280,Charles I of Austria,0.7711989454416662
Henry_H._Arnold,1886,False,356423,13150,2125,Henry H. Arnold,0.7710384123203329
Ludwig_Mies_van_der_Rohe,1886,False,199614,29551,1506,Ludwig Mies van der Rohe,0.7709476281666676
Eugene_O'Neill,1888,False,199730,40841,1218,Eugene O'Neill,0.7708711356038063
Alice_Paul,1885,False,245477,20375,1697,Alice Paul,0.7692369630925201
Boris_Karloff,1887,False,150280,37306,1397,Boris Karloff,0.7684992049750579
Chester_W._Nimitz,1885,False,192621,30519,1353,Chester W. Nimitz,0.7670467943010287
Otto_Frank,1889,False,84537,32780,2029,Otto Frank,0.7668698179418721
Siegfried_Sassoon,1886,False,148338,19695,2130,Siegfried Sassoon,0.7667063635889682
Lead_Belly,1888,False,140655,25804,1777,Lead Belly,0.7666679008219592
Ernst_Röhm,1887,False,137777,33441,1459,Ernst Röhm,0.7657135643084276
A._A._Milne,1882,False,159634,29758,1422,A. A. Milne,0.7647044148728784
Heinz_Guderian,1888,False,173884,29576,1364,Heinz Guderian,0.7646196107901997
Igor_Sikorsky,1889,False,203554,14306,2103,Igor Sikorsky,0.7632020512430595
Albert_Kesselring,1885,False,307073,14942,1585,Albert Kesselring,0.7619609617755924
W._C._Fields,1880,False,187458,20672,1548,W. C. Fields,0.761338811423392
Avery_Brundage,1887,False,290304,18481,1342,Avery Brundage,0.7608623731678366
Rajendra_Prasad,1884,False,171981,41340,1010,Rajendra Prasad,0.7607928800918146
Henry_A._Wallace,1888,False,260085,25561,1101,Henry A. Wallace,0.7599437216781177
L._S._Lowry,1887,False,166833,15843,1948,L. S. Lowry,0.759840718299173
Robert_Moses,1888,False,181801,19858,1553,Robert Moses,0.7597957551553652
Fernando_Pessoa,1888,False,220966,12681,1970,Fernando Pessoa,0.758941678642288
Cecil_B._DeMille,1881,False,195314,26402,1108,Cecil B. DeMille,0.7558886754498747
Georges_Braque,1882,False,154296,16807,1628,Georges Braque,0.7538259884164797
José_Raúl_Capablanca,1888,False,376728,10644,1512,José Raúl Capablanca,0.7536336658737508
Joseph_Alois_Schumpeter,1883,False,278679,22111,987,Joseph Schumpeter,0.7530061963717289
Alfonso_XIII_of_Spain,1886,False,233606,23717,985,Alfonso XIII of Spain,0.7516839200329191
Hugo_Black,1886,False,289898,12776,1358,Hugo Black,0.7508230774502151
Conrad_Hilton,1887,False,68995,54380,1066,Conrad Hilton,0.7507608662067174
Princess_Alice_of_Battenberg,1885,False,210014,28100,905,Princess Alice of Battenberg,0.7506360849635153
Wilhelm_Keitel,1882,False,155086,29064,1002,Wilhelm Keitel,0.7500556379591429
Ludwig_von_Mises,1881,False,141440,18859,1385,Ludwig von Mises,0.7495469459504591
Karen_Blixen,1885,False,282247,22761,856,Karen Blixen,0.7481543081830789
Wilhelmina_of_the_Netherlands,1880,False,252998,16930,1089,Wilhelmina of the Netherlands,0.7481189355933451
Raymond_Chandler,1888,False,120875,26210,1133,Raymond Chandler,0.7475527646570663
Sinclair_Lewis,1885,False,177006,20467,1062,Sinclair Lewis,0.7459078543817739
Harpo_Marx,1888,False,120784,26432,1068,Harpo Marx,0.745480972493183
Max_Born,1882,False,231686,14404,1184,Max Born,0.7453362961866793
Douglas_Fairbanks,1883,False,161343,29148,861,Douglas Fairbanks,0.7447329134475819
Theodore_Roosevelt_Jr.,1887,False,259650,15215,1030,Theodore Roosevelt Jr.,0.7434867068114446
Evelyn_Nesbit,1884,False,174258,22335,935,Evelyn Nesbit,0.7428702208827689
Alexander_Kerensky,1881,False,143201,19639,1113,Alexander Kerensky,0.7427489845133404
Jean_Cocteau,1889,False,163415,20935,984,Jean Cocteau,0.7420781373241558
Claude_Rains,1889,False,164976,23840,897,Claude Rains,0.741864086819235
Arnold_Rothstein,1882,False,119653,34756,830,Arnold Rothstein,0.7418087904360922
Stefan_Zweig,1881,False,165824,24065,855,Stefan Zweig,0.7402534961203673
John_Foster_Dulles,1888,False,187578,20747,877,John Foster Dulles,0.7397419213195987
Louis_B._Mayer,1885,False,187174,17377,985,Louis B. Mayer,0.7396938602567306
Robert_A._Taft,1889,False,282671,15215,894,Robert A. Taft,0.7393278339752309
Subramania_Bharati,1882,False,130550,22079,968,Subramania Bharati,0.738661466890308
Dale_Carnegie,1888,False,85311,33977,904,Dale Carnegie,0.738120913491054
Wilhelm_Canaris,1887,False,188260,15477,1015,Wilhelm Canaris,0.7378636637723301
Anna_Pavlova,1881,False,113951,17706,1127,Anna Pavlova,0.7362340009339219
Henry_Moseley,1887,False,91008,15674,1383,Henry Moseley,0.7360383070759294
Karl_Barth,1886,False,226260,12770,1019,Karl Barth,0.7359036032186598
Leopold_Stokowski,1882,False,206162,18232,829,Leopold Stokowski,0.7357901861143659
"William_Halsey,_Jr.",1882,False,244098,7457,1496,William Halsey Jr.,0.7351266563873886
Aristides_de_Sousa_Mendes,1885,False,274661,3780,2913,Aristides de Sousa Mendes,0.7348972932014489
Paul_Tillich,1886,False,256392,12015,961,Paul Tillich,0.7340353123683223
Faisal_I_of_Iraq,1885,False,165419,19625,830,Faisal I of Iraq,0.7338936967003814
Knute_Rockne,1888,False,178060,13198,1041,Knute Rockne,0.7335134815658407
Oswald_Spengler,1880,False,145657,11568,1227,Oswald Spengler,0.7323135154648514
Rose_Wilder_Lane,1886,False,140476,18471,892,Rose Wilder Lane,0.732287698046035
Arthur_Rubinstein,1887,False,136057,12833,1164,Arthur Rubinstein,0.7320757459102548
William_Frawley,1887,False,106335,29543,749,William Frawley,0.7315641372599325
Getúlio_Vargas,1882,False,232631,9539,1120,Getúlio Vargas,0.7315525104613154
Walther_von_Brauchitsch,1881,False,162172,9839,1291,Walther von Brauchitsch,0.7313877702135695
Pierre_Laval,1883,False,305578,9725,971,Pierre Laval,0.7312117188600369
Anna_Akhmatova,1889,False,176223,13077,962,Anna Akhmatova,0.730091263641356
René_Guénon,1886,False,233976,5785,1662,René Guénon,0.729819111509608
Rupert_Brooke,1887,False,96610,12365,1338,Rupert Brooke,0.7296037409849196
"Lon_Chaney,_Sr.",1883,False,132210,14331,1009,Lon Chaney,0.7292791985907345
Anton_Webern,1883,False,226664,8036,1195,Anton Webern,0.7283587891197618
Kurt_von_Schleicher,1882,False,274497,12707,774,Kurt von Schleicher,0.7281498688309513
Katherine_Mansfield,1888,False,139622,14050,953,Katherine Mansfield,0.7275763678895759
Percy_Grainger,1882,False,221803,7741,1207,Percy Grainger,0.7272223962470525
Walter_Gropius,1883,False,113435,16010,949,Walter Gropius,0.7270800588024855
Hedda_Hopper,1885,False,123612,34327,572,Hedda Hopper,0.7262682279761149
Joseph_Stilwell,1883,False,222082,9037,1030,Joseph Stilwell,0.7261161672383948
Morihei_Ueshiba,1883,False,180434,9362,1095,Morihei Ueshiba,0.7259057251201978
Alexander_I_of_Yugoslavia,1888,False,233039,11858,813,Alexander I of Yugoslavia,0.725569429656271
Gustaf_VI_Adolf_of_Sweden,1882,False,244956,15966,656,Gustaf VI Adolf of Sweden,0.7255509425860842
Jack_Hobbs,1882,False,314156,6285,1176,Jack Hobbs,0.7254219116689964
Walter_Johnson,1887,False,273823,11944,749,Walter Johnson,0.7250843856399076
Victoria_Eugenie_of_Battenberg,1887,False,177196,13115,834,Victoria Eugenie of Battenberg,0.7247449118983431
Arnold_J._Toynbee,1889,False,148988,11603,949,Arnold J. Toynbee,0.7233763484467849
Franz_Marc,1880,False,123532,11082,1074,Franz Marc,0.7233463846196767
Arthur_Eddington,1882,False,179965,9689,978,Arthur Eddington,0.722697162686342
Christy_Mathewson,1880,False,339021,8577,813,Christy Mathewson,0.7222852660007123
Frank_Nitti,1886,False,93788,22116,734,Frank Nitti,0.7215331339032043
Jerome_Kern,1885,False,212414,9810,828,Jerome Kern,0.7194856842959728
Billie_Burke,1884,False,100935,24703,629,Billie Burke,0.7191558051204979
Billie_Burke,1885,False,100935,24703,629,Billie Burke,0.7191558051204979
Wallace_Beery,1885,False,142381,15422,702,Wallace Beery,0.7183603551143191
Giorgio_de_Chirico,1888,False,122768,12315,858,Giorgio de Chirico,0.7177631938844259
Felix_Frankfurter,1882,False,185467,10693,784,Felix Frankfurter,0.7175325267430576
Arthur_Percival,1887,False,167080,5775,1312,Arthur Percival,0.7163129988254678
Wilhelm_Furtwängler,1886,False,271754,5410,1080,Wilhelm Furtwängler,0.7153832815034242
Sarah_Knauss,1880,False,55692,18540,902,Sarah Knauss,0.7150761287814544
John_Curtin,1885,False,181929,6917,1023,John Curtin,0.714645215651223
Johnny_Torrio,1882,False,95260,24107,580,Johnny Torrio,0.714094736531185
Tom_Mix,1880,False,86893,15373,783,Tom Mix,0.7137134296686034
Gerald_Gardner_(Wiccan),1884,False,222805,6376,959,Gerald Gardner (Wiccan),0.713125026632827
Julian_Huxley,1887,False,206793,7687,850,Julian Huxley,0.7130470053401998
Theda_Bara,1885,False,108570,12407,792,Theda Bara,0.7127015556017808
Edward_Weston,1886,False,162279,9939,740,Edward Weston,0.7110417974646805
Maurice_Chevalier,1888,False,123502,14280,643,Maurice Chevalier,0.7103590172915908
Władysław_Sikorski,1881,False,243846,5543,953,Władysław Sikorski,0.7099923708754133
Günther_Lütjens,1889,False,267776,4307,1152,Günther Lütjens,0.709989294471637
Nikolai_Ivanovich_Bukharin,1888,False,132473,10311,762,Nikolai Bukharin,0.7097530652264831
John_Reed_(journalist),1887,False,150188,10224,721,John Reed (journalist),0.7095010342021537
Crown_Prince_Wilhelm_of_Germany,1882,False,177920,15045,521,"Wilhelm, German Crown Prince",0.7089814454482081
Sam_Rayburn,1882,False,145956,10597,693,Sam Rayburn,0.70842859809463
Louis_St._Laurent,1882,False,185583,6178,925,Louis St. Laurent,0.707925777333764
Tomoyuki_Yamashita,1885,False,102948,13529,678,Tomoyuki Yamashita,0.7079118492465166
İsmet_İnönü,1884,False,167897,7101,848,İsmet İnönü,0.7072551619278302
Lesley_J._McNair,1883,False,482581,5423,691,Lesley J. McNair,0.7071694210397717
Ma_Rainey,1886,False,128342,11405,668,Ma Rainey,0.7067435720168621
"Archibald_Wavell,_1st_Earl_Wavell",1883,False,249675,6087,789,"Archibald Wavell, 1st Earl Wavell",0.7062491582900342
Heitor_Villa-Lobos,1887,False,146816,6792,871,Heitor Villa-Lobos,0.7047217195332547
Kermit_Roosevelt,1889,False,138171,11515,610,Kermit Roosevelt,0.7045867567785997
Enoch_L._Johnson,1883,False,99723,32509,396,Enoch L. Johnson,0.7045034673985587
"E._F._L._Wood,_1st_Earl_of_Halifax",1881,False,308620,5760,722,"Edward Wood, 1st Earl of Halifax",0.7043604893538601
Claude_Auchinleck,1884,False,180654,6108,843,Claude Auchinleck,0.7037564745903574
Ed_Wynn,1886,False,81720,18346,564,Ed Wynn,0.703721226933387
Thomas_Hart_Benton_(painter),1889,False,119007,8301,793,Thomas Hart Benton (painter),0.7034509616248753
Guillaume_Apollinaire,1880,False,120948,10709,652,Guillaume Apollinaire,0.7031010731808046
Edgard_Varèse,1883,False,152368,8728,678,Edgard Varèse,0.7029899185467232
Fedor_von_Bock,1880,False,138435,9684,656,Fedor von Bock,0.7029385950674281
Eric_Gill,1882,False,159472,8096,696,Eric Gill,0.7026663008201502
Juan_Gris,1887,False,99890,7878,875,Juan Gris,0.7025613132090868
Stanley_Bruce,1883,False,358103,3316,1050,Stanley Bruce,0.702255018560508
George_Herriman,1880,False,341511,3848,918,George Herriman,0.7019116596290025
Bess_Truman,1885,False,108654,14422,543,Bess Truman,0.7013996003206676
Nikos_Kazantzakis,1883,False,103272,10203,690,Nikos Kazantzakis,0.7013104717570517
Will_Durant,1885,False,108230,12239,597,Will Durant,0.701118155296841
Gabriela_Mistral,1889,False,126646,8240,719,Gabriela Mistral,0.7005925529772214
Thomas_Blamey,1884,False,300891,3844,932,Thomas Blamey,0.7005791058839598
Felix_Yusupov,1887,False,156504,10595,555,Felix Yusupov,0.7005770656547127
Ernest_Bevin,1881,False,184721,6173,753,Ernest Bevin,0.7002181606392132
William_Boeing,1881,False,84681,11275,685,William Boeing,0.7001246654951094
Bronisław_Malinowski,1884,False,114088,12076,574,Bronisław Malinowski,0.7000810834396971
James_F._Byrnes,1882,False,203072,7586,618,James F. Byrnes,0.699990638725183
Joe_Masseria,1886,False,104647,14591,528,Joe Masseria,0.6998582552094722
Chico_Marx,1887,False,81741,15795,549,Chico Marx,0.6990321258380705
Nadia_Boulanger,1887,False,134781,6860,764,Nadia Boulanger,0.6987428777319284
Sessue_Hayakawa,1889,False,114472,15611,477,Sessue Hayakawa,0.6987103402330075
Robert_Schuman,1886,False,223353,7353,586,Robert Schuman,0.6984309413915458
Sergey_Kirov,1886,False,127474,8185,677,Sergey Kirov,0.6981981397525171
Ludwig_Beck,1880,False,132963,11080,530,Ludwig Beck,0.6971518883926194
Clementine_Churchill,1885,False,96188,20974,417,Clementine Churchill,0.6966591247807186
Max_Steiner,1888,False,154971,6543,700,Max Steiner,0.6963537020220116
Walter_Huston,1883,False,117760,14215,468,Walter Huston,0.6960931606838405
Edvard_Beneš,1884,False,131404,6707,726,Edvard Beneš,0.6957595417058206
Violet_Jessop,1887,False,91181,16332,461,Violet Jessop,0.6943773476970267
Álvaro_Obregón,1880,False,175230,7312,578,Álvaro Obregón,0.6939694214035161
Kliment_Voroshilov,1881,False,119762,8872,580,Kliment Voroshilov,0.6932574276515365
Otto_Heinrich_Warburg,1883,False,131107,11304,479,Otto Heinrich Warburg,0.6931697005282045
Austin_Osman_Spare,1886,False,184532,6030,637,Austin Osman Spare,0.6931046626156354
Henry_J._Kaiser,1882,False,149436,8679,534,Henry J. Kaiser,0.6929323725383871
Damon_Runyon,1880,False,120646,8609,585,Damon Runyon,0.6929149259097183
Alf_Landon,1887,False,139533,9537,508,Alf Landon,0.692268410329651
Jozef_Tiso,1887,False,142276,5627,732,Jozef Tiso,0.69224693210808
Alban_Berg,1885,False,136326,9209,523,Alban Berg,0.6921748179379434
Jean_Monnet,1888,False,136773,7951,575,Jean Monnet,0.6921287943285953
Han_van_Meegeren,1889,False,180637,4825,744,Han van Meegeren,0.6919927165655966
Spring_Byington,1886,False,92170,13337,485,Spring Byington,0.691871127417075
Paul_Hausser,1880,False,138104,8730,533,Paul Hausser,0.6917419578465145
Felix_Ysagun_Manalo,1886,False,87409,4160,1180,Felix Manalo,0.6913434686944586
Ben_Chifley,1885,False,191048,3848,861,Ben Chifley,0.6910155403620697
Husband_E._Kimmel,1882,False,93379,10654,538,Husband E. Kimmel,0.690787308342163
Carl_Van_Vechten,1880,False,142491,7335,574,Carl Van Vechten,0.6905000780042353
Mirza_Basheer-ud-Din_Mahmood_Ahmad,1889,False,136347,4893,783,Mirza Basheer-ud-Din Mahmood Ahmad,0.6898405654697799
Victor_McLaglen,1886,False,122232,11878,441,Victor McLaglen,0.6897147052304281
Vajiravudh,1880,False,204842,6303,538,Vajiravudh,0.6892691815375284
F._W._Murnau,1888,False,98605,8396,587,F. W. Murnau,0.6889842354758201
Tris_Speaker,1888,False,281670,5527,518,Tris Speaker,0.6885850927912304
Roderick_McMahon,1882,False,49630,28144,382,Jess McMahon,0.6869674181899409
Ernst_Ludwig_Kirchner,1880,False,146562,9401,441,Ernst Ludwig Kirchner,0.6866968969988352
Grover_Cleveland_Alexander,1887,False,287705,5399,493,Grover Cleveland Alexander,0.686161914388937
Raymond_A._Spruance,1886,False,116158,9098,485,Raymond A. Spruance,0.6861183191776343
Norman_Thomas,1884,False,225453,5026,560,Norman Thomas,0.6856920453493065
Donald_Crisp,1882,False,114633,7451,548,Donald Crisp,0.6855511458851453
Hugh_Dowding,1882,False,151962,4227,749,Hugh Dowding,0.6854649106533448
Mack_Sennett,1880,False,114632,7152,560,Mack Sennett,0.6852920494526581
Max_Fleischer,1883,False,89109,8017,562,Max Fleischer,0.684306598619796
Hans_Kelsen,1881,False,190227,5072,561,Hans Kelsen,0.6835138152068958
Karl_Jaspers,1883,False,132439,8200,457,Karl Jaspers,0.6830231615525617
José_Ortega_y_Gasset,1883,False,146019,7737,457,José Ortega y Gasset,0.6830149147661357
Günther_von_Kluge,1882,False,92793,9211,488,Günther von Kluge,0.682953707318371
Anton_Drexler,1884,False,75177,13874,418,Anton Drexler,0.6829103083514434
Squizzy_Taylor,1888,False,130712,4806,666,Squizzy Taylor,0.6826846355981505
Sophie_Tucker,1884,False,128690,7776,470,Sophie Tucker,0.6823255675228861
George_Enescu,1881,False,122690,6161,547,George Enescu,0.6813245242317959
Alcide_De_Gasperi,1881,False,195064,5166,515,Alcide De Gasperi,0.6810264357792037
Arnold_Bax,1883,False,193964,3155,742,Arnold Bax,0.6795094173751962
Lothrop_Stoddard,1883,False,117913,9573,397,Lothrop Stoddard,0.6791583066014558
Zoltán_Kodály,1882,False,112134,5970,549,Zoltán Kodály,0.6791349822189201
Max_Beckmann,1884,False,85300,6681,564,Max Beckmann,0.6787767063062237
Christian_Mortensen,1882,False,48432,8443,619,Christian Mortensen,0.6784752094960833
Shmuel_Yosef_Agnon,1888,False,134378,3812,707,Shmuel Yosef Agnon,0.6782422621825027
Franz_Halder,1884,False,124593,8205,412,Franz Halder,0.6776788222818838
Jacob_L._Devers,1887,False,328462,2811,639,Jacob L. Devers,0.6776769584784657
Vincent_Massey,1887,False,248163,2759,720,Vincent Massey,0.6775345887101362
Seán_O'Casey,1880,False,115739,5039,587,Seán O'Casey,0.6773825027972445
Erich_von_Stroheim,1885,False,86664,9861,419,Erich von Stroheim,0.6771646776787025
"John_S._McCain,_Sr.",1884,False,126574,5374,535,John S. McCain Sr.,0.6770737994905649
Rodolfo_Graziani,1882,False,120141,5467,537,Rodolfo Graziani,0.6768851814040654
Hiram_Wesley_Evans,1881,False,188752,4004,568,Hiram Wesley Evans,0.676763361637535
Jacob_Epstein,1880,False,111011,4289,667,Jacob Epstein,0.676711029184605
Will_Hay,1888,False,114954,4687,607,Will Hay,0.6764215495528468
Erle_Stanley_Gardner,1889,False,98810,6754,491,Erle Stanley Gardner,0.6760520596121324
Julius_Freed,1887,False,86094,8734,414,Orange Julius,0.6734920674098984
Hugh_Walpole,1884,False,198988,3636,549,Hugh Walpole,0.6732504077779833
"Joe_""King""_Oliver",1885,False,67693,4747,695,King Oliver,0.6729382076880625
Jean_Arp,1886,False,88067,7048,463,Jean Arp,0.6729281826934449
Victor_Fleming,1889,False,87436,8185,422,Victor Fleming,0.6728957917092879
Heinrich_Brüning,1885,False,143983,5788,435,Heinrich Brüning,0.6728235577311253
Otto_Klemperer,1885,False,105782,4598,571,Otto Klemperer,0.672221880044008
Clara_Blandick,1880,False,66988,9899,412,Clara Blandick,0.6721501753625864
John_L._Lewis,1880,False,100860,5184,522,John L. Lewis,0.6714720908161111
Sara_Teasdale,1884,False,79387,5914,524,Sara Teasdale,0.6713667253573903
Hermann_Hoth,1885,False,153326,5395,429,Hermann Hoth,0.6712333333762642
Edward_Everett_Horton,1886,False,97358,7863,395,Edward Everett Horton,0.6708357386038988
Edna_Ferber,1887,False,163049,6370,370,Edna Ferber,0.6704523131239593
Sylvia_Pankhurst,1882,False,92492,7383,410,Sylvia Pankhurst,0.6699443107955066
"Thomas_Midgley,_Jr.",1889,False,100712,6010,450,Thomas Midgley Jr.,0.6696693983742777
Irving_Langmuir,1881,False,139376,4720,468,Irving Langmuir,0.6695328540690155
Gladys_Cooper,1888,False,85544,7535,413,Gladys Cooper,0.6694997446905101
Angela_Hitler,1883,False,65135,17480,291,Angela Hitler,0.6693148271760745
Melanie_Klein,1882,False,86732,7125,423,Melanie Klein,0.6692622750063304
Robert_Musil,1880,False,155532,4865,435,Robert Musil,0.6690866534943
François_Darlan,1881,False,145859,5425,409,François Darlan,0.6686560213956871
W._T._Cosgrave,1880,False,200809,3100,552,W. T. Cosgrave,0.6685730943981624
Oskar_Kokoschka,1886,False,94545,7814,380,Oskar Kokoschka,0.6685512499137145
Clifton_Webb,1889,False,92023,9242,345,Clifton Webb,0.6681348884736984
Alfred_Noyes,1880,False,120619,3120,661,Alfred Noyes,0.6678505992172545
Auguste_Piccard,1884,False,65397,9950,374,Auguste Piccard,0.6677504596905154
Sir_Richard_O'Connor,1889,False,152330,2070,888,Richard O'Connor,0.6677484913312183
Chūichi_Nagumo,1887,False,87547,5233,497,Chūichi Nagumo,0.6675319707305299
Ernst_Hanfstaengl,1887,False,76335,9282,363,Ernst Hanfstaengl,0.6673892494448569
Charles_Williams_(UK_writer),1886,False,114376,5047,456,Charles Williams (British writer),0.6673679904143349
Joseph_Pilates,1883,False,54560,8835,428,Joseph Pilates,0.6673216514965566
Manuel_Azaña,1880,False,121379,4986,446,Manuel Azaña,0.6670521992993195
A._Y._Jackson,1882,False,100850,3081,704,A. Y. Jackson,0.6668733246091942
St_John_Philby,1885,False,87730,4713,523,St John Philby,0.6665755189713753
Lytton_Strachey,1880,False,97129,6814,390,Lytton Strachey,0.6665349150815126
Henri_Coandă,1886,False,73574,4111,626,Henri Coandă,0.6663858804575788
Emil_Jannings,1884,False,105393,6232,388,Emil Jannings,0.6652469029840595
Johannes_Blaskowitz,1883,False,114611,4705,452,Johannes Blaskowitz,0.6650580820959399
Peter_Debye,1884,False,145433,4027,459,Peter Debye,0.6647613067327288
Adrian_Boult,1889,False,167502,2298,700,Adrian Boult,0.6647401821724245
Carl_von_Ossietzky,1889,False,133972,3884,480,Carl von Ossietzky,0.6642274604775242
Jonathan_Mayhew_Wainwright_IV,1883,False,115820,4835,430,Jonathan M. Wainwright (general),0.6639861177409242
Ernst_Thälmann,1886,False,94903,6195,393,Ernst Thälmann,0.6639681016570342
John_Edensor_Littlewood,1885,False,77643,12253,287,John Edensor Littlewood,0.6637282108515853
Marie-Louise_Meilleur,1880,False,41537,12635,359,Marie-Louise Meilleur,0.6635163706998489
Jacques_Maritain,1882,False,175546,4760,367,Jacques Maritain,0.6631340777804888
George_S._Kaufman,1889,False,169553,4943,362,George S. Kaufman,0.6631115190337137
Theodor_Heuss,1884,False,97846,7330,343,Theodor Heuss,0.6630425091849874
Anita_Loos,1888,False,164382,3400,468,Anita Loos,0.6622339009462497
Sigrid_Undset,1882,False,130512,3899,458,Sigrid Undset,0.6621081093234603
Edith_Evans,1888,False,164859,5154,347,Edith Evans,0.6620502122181624
Florence_Lawrence,1886,False,141724,3628,467,Florence Lawrence,0.661952699682914
Jean_de_Lattre_de_Tassigny,1889,False,158181,4880,361,Jean de Lattre de Tassigny,0.6616330048555886
Edward_Rydz-Śmigły,1886,False,117316,3235,546,Edward Rydz-Śmigły,0.661592228968613
Burt_Mustin,1884,False,84756,10103,291,Burt Mustin,0.6613012114126402
María_Capovilla,1889,False,46130,3998,684,María Capovilla,0.6606046115595046
Sam_Langford,1883,False,208878,3709,385,Sam Langford,0.6603576664239424
Georgi_Dimitrov,1882,False,128309,4695,382,Georgi Dimitrov,0.6598546769063246
Frank_Jack_Fletcher,1885,False,110923,5028,383,Frank Jack Fletcher,0.6596708406728244
"George_""Gabby""_Hayes",1885,False,69172,8985,321,"George ""Gabby"" Hayes",0.6595847173831776
Alexander_Vandegrift,1887,False,171129,4329,350,Alexander Vandegrift,0.6580621505291783
Gaston_Bachelard,1884,False,110027,5197,356,Gaston Bachelard,0.6573902221791614
Édouard_Daladier,1884,False,155547,5972,289,Édouard Daladier,0.6570831109007131
Robinson_Jeffers,1887,False,74201,4348,465,Robinson Jeffers,0.6570370623359972
William_Joseph_Simmons,1880,False,51797,3826,595,William Joseph Simmons,0.656471308624941
Semyon_Budyonny,1883,False,116739,4761,351,Semyon Budyonny,0.6552864223709066
Eddie_Collins,1887,False,223577,3343,356,Eddie Collins,0.6549102700077454
Paul_Ludwig_Ewald_von_Kleist,1881,False,71978,6066,353,Paul Ludwig Ewald von Kleist,0.6544779912647868
Giles_Gilbert_Scott,1880,False,141397,3644,381,Giles Gilbert Scott,0.6539079253844192
Thomas_C._Kinkaid,1888,False,167969,3429,374,Thomas C. Kinkaid,0.6538001516171925
Karol_Szymanowski,1882,False,97295,3510,447,Karol Szymanowski,0.653601472740734
Marion_Lorne,1883,False,81642,8107,274,Marion Lorne,0.6526787986234516
Bidhan_Chandra_Roy,1882,False,110546,6080,289,Bidhan Chandra Roy,0.6525503485757975
Seán_T._O'Kelly,1882,False,185155,2208,497,Seán T. O'Kelly,0.6524847240574004
Geoffrey_Fisher,1887,False,104937,3166,456,Geoffrey Fisher,0.6524420389088987
Juan_Ramón_Jiménez,1881,False,95659,4092,390,Juan Ramón Jiménez,0.6523857880750091
Selman_Waksman,1888,False,126352,3241,416,Selman Waksman,0.6523330317706977
Ivan_Meštrović,1883,False,96346,2698,537,Ivan Meštrović,0.6523232218197973
George_Kenney,1889,False,224566,2344,438,George Kenney,0.6522427995461517
Barry_Fitzgerald,1888,False,100345,9070,238,Barry Fitzgerald,0.6519681326051842
Werner_von_Fritsch,1880,False,94781,4893,343,Werner von Fritsch,0.651906661420249
Theo_van_Doesburg,1883,False,92797,5955,305,Theo van Doesburg,0.6517434049856147
Cyril_Burt,1883,False,142897,2014,581,Cyril Burt,0.6514559610962396
Hans_Geiger,1882,False,57741,3951,477,Hans Geiger,0.6511523963090922
Grantland_Rice,1880,False,105939,4592,337,Grantland Rice,0.6511188875954952
James_Franck,1882,False,188366,3099,361,James Franck,0.6508949913958151
Christabel_Pankhurst,1880,False,82037,7243,278,Christabel Pankhurst,0.6506573476330451
Troy_H._Middleton,1889,False,358220,1190,690,Troy H. Middleton,0.6504701715447747
Earle_Page,1880,False,132044,1921,606,Earle Page,0.6501966518679243
Olave_Baden-Powell,1889,False,104809,3185,427,Olave Baden-Powell,0.6500665680589149
Neville_Cardus,1888,False,233012,1708,542,Neville Cardus,0.649992502004576
Rudolf_Bultmann,1884,False,115527,4368,328,Rudolf Bultmann,0.6498817203842218
John_Flynn_(minister),1880,False,63388,2928,556,John Flynn (minister),0.6494792604211332
Anthony_Wilding,1883,False,248310,986,975,Anthony Wilding,0.6493162170262153
Warner_Baxter,1889,False,99842,4495,333,Warner Baxter,0.6491373210758151
Karl_von_Frisch,1886,False,153591,3460,339,Karl von Frisch,0.6487371692368422
Walton_Walker,1889,False,133387,3202,376,Walton Walker,0.6487170902532262
W._O._Bentley,1888,False,142194,3227,361,W. O. Bentley,0.6482033749112683
Agustín_Pío_Barrios,1885,False,79515,3290,442,Agustín Barrios,0.6481318905874706
Paul_Lukas,1887,False,120606,4820,291,Paul Lukas,0.6480209243071764
Fritz_Pfeffer,1889,False,64341,4248,394,Fritz Pfeffer,0.6475866545794666
Ulysses_S._Grant_III,1881,False,102355,3859,351,Ulysses S. Grant III,0.6474531226418562
Jun'ichirō_Tanizaki,1886,False,93082,4627,320,Jun'ichirō Tanizaki,0.6471805568141783
Fan_S._Noli,1882,False,159171,2442,418,Fan S. Noli,0.6470784078553417
George_Abbott,1887,False,123292,3448,352,George Abbott,0.6470733785980759
Robert_J._Flaherty,1884,False,97950,3611,370,Robert J. Flaherty,0.6470508583937401
Harry_Ferguson,1884,False,78034,3343,426,Harry Ferguson,0.6468925232907061
Carl_Vinson,1883,False,84884,5084,308,Carl Vinson,0.6466588534238744
Conrad_Aiken,1889,False,89520,2735,459,Conrad Aiken,0.6458312144933374
Risto_Ryti,1889,False,124840,2739,402,Risto Ryti,0.6457107728112745
Ettore_Bugatti,1881,False,74892,7769,246,Ettore Bugatti,0.6453373333592536
Lloyd_Fredendall,1883,False,104453,4695,291,Lloyd Fredendall,0.6452075718437467
Gerrit_Rietveld,1888,False,82979,5747,278,Gerrit Rietveld,0.6450226091694311
Gabriel_Marcel,1889,False,107706,3794,320,Gabriel Marcel,0.6438784449393035
Beulah_Bondi,1889,False,75004,7159,247,Beulah Bondi,0.643581188381417
George_de_Hevesy,1885,False,119445,3277,337,George de Hevesy,0.6433448275705618
Aleksei_Nikolaevich_Tolstoi,1883,False,113773,2947,365,Aleksey Nikolayevich Tolstoy,0.6427628667984833
Olaf_Stapledon,1886,False,92294,3908,318,Olaf Stapledon,0.6421574032650795
Ring_Lardner,1885,False,84109,4105,316,Ring Lardner,0.6418497745554202
Paul_Ehrenfest,1880,False,95349,3027,373,Paul Ehrenfest,0.6418335021450609
Jean_Hersholt,1886,False,98237,5236,257,Jean Hersholt,0.6416578819061731
Tod_Browning,1880,False,79593,5433,270,Tod Browning,0.6416498635006874
Sam_Crawford,1880,False,218642,2981,283,Sam Crawford,0.6413909471814675
Texas_Guinan,1884,False,64899,4147,327,Texas Guinan,0.6395349473456116
Sax_Rohmer,1883,False,71734,3285,368,Sax Rohmer,0.639362442847152
R._G._Collingwood,1889,False,111923,4347,260,R. G. Collingwood,0.6391770441630632
Allan_Dwan,1885,False,82376,3300,346,Allan Dwan,0.639148715850736
Gustav_Ludwig_Hertz,1887,False,111150,2636,364,Gustav Ludwig Hertz,0.6389657340758751
Hugo_Sperrle,1885,False,74350,4625,285,Hugo Sperrle,0.6387803001024245
Friedrich_Olbricht,1888,False,64649,6877,238,Friedrich Olbricht,0.6385756867297572
Roy_Chapman_Andrews,1884,False,70586,2978,389,Roy Chapman Andrews,0.6384350740783414
Georg_von_Küchler,1881,False,99658,3126,329,Georg von Küchler,0.6383674197927854
Yitzhak_Ben-Zvi,1884,False,77430,3207,349,Yitzhak Ben-Zvi,0.6377363472799508
François_Mauriac,1885,False,102269,3350,306,François Mauriac,0.6377275960176718
Vernon_Castle,1887,False,86140,3128,340,Vernon and Irene Castle,0.6375730076497017
Georgios_Papandreou,1888,False,231882,2062,332,Georgios Papandreou,0.6374983733592163
Holland_Smith,1882,False,108683,3793,273,Holland Smith,0.63720290981758
Roland_Garros_(aviator),1888,False,87168,3197,327,Roland Georges Garros,0.6367946471274185
Blaise_Cendrars,1887,False,94028,2639,362,Blaise Cendrars,0.6363589121114824
Bradbury_Robinson,1884,False,167497,745,1115,Bradbury Robinson,0.6363331477794003
Jan_Masaryk,1886,False,87567,3124,327,Jan Masaryk,0.6361987667167078
Alexander_Woollcott,1887,False,85993,3023,335,Alexander Woollcott,0.6359607634125294
"Simon_Bolivar_Buckner,_Jr.",1886,False,91440,2265,408,Simon Bolivar Buckner Jr.,0.6358839346168759
Max_Wertheimer,1880,False,89477,4404,257,Max Wertheimer,0.6357552240675273
Guccio_Gucci,1881,False,42045,7217,254,Guccio Gucci,0.6356470495603087
Maximilian_von_Weichs,1881,False,98688,3339,295,Maximilian von Weichs,0.6355792595073271
Prince_Yasuhiko_Asaka,1887,False,64946,6739,222,Prince Yasuhiko Asaka,0.6349398877310697
Sylvanus_Morley,1883,False,166364,1317,518,Sylvanus Morley,0.6347166054497699
Hubert_Harrison,1883,False,99692,1754,476,Hubert Harrison,0.6345728107802333
Malcolm_Campbell,1885,False,71312,3997,283,Malcolm Campbell,0.6339512784021136
Sybil_Thorndike,1882,False,87953,3599,278,Sybil Thorndike,0.633472650756252
Charles_White_Whittlesey,1884,False,70624,5563,230,Charles White Whittlesey,0.633195857902627
Max_Linder,1883,False,100030,2537,336,Max Linder,0.6331134263547008
Alphonse_Juin,1888,False,145854,2215,327,Alphonse Juin,0.6331079109656769
Francis_X._Bushman,1883,False,59576,3367,332,Francis X. Bushman,0.6330616968329411
Luisa_Casati,1881,False,73442,4358,258,Luisa Casati,0.6327020371164523
Jaroslav_Hašek,1883,False,75826,2857,337,Jaroslav Hašek,0.6326788728817524
Umberto_Nobile,1885,False,126077,2157,347,Umberto Nobile,0.6326689814935756
Thomas_Selfridge,1882,False,84517,3244,293,Thomas Selfridge,0.6322161189034357
Harlow_Shapley,1885,False,99871,2614,320,Harlow Shapley,0.6320199564499901
August_Macke,1887,False,86081,3855,259,August Macke,0.6319715206836151
Vittorio_Pozzo,1886,False,192137,1985,313,Vittorio Pozzo,0.6314927608013805
Wacław_Sierpiński,1882,False,74477,2639,349,Wacław Sierpiński,0.6314644474318578
Fred_Quimby,1886,False,51673,5637,243,Fred Quimby,0.6311207693788757
Lynn_Fontanne,1887,False,104538,2737,298,Lynn Fontanne,0.6311069856086272
Stanisław_Ignacy_Witkiewicz,1885,False,93196,2403,341,Stanisław Ignacy Witkiewicz,0.6310471478477493
Inge_Lehmann,1888,False,88230,2229,363,Inge Lehmann,0.6304024303940984
Lluís_Companys,1883,False,117737,1850,380,Lluís Companys,0.6303625070685567
Ernest_Bloch,1880,False,77093,3426,278,Ernest Bloch,0.6301671111801119
Masaharu_Homma,1887,False,72100,3467,281,Masaharu Homma,0.6299471772915699
Edith_Bratt,1889,False,82558,4238,231,Edith Tolkien,0.6287986041754123
Celâl_Bayar,1883,False,103668,1985,358,Celâl Bayar,0.6285563202529271
Max_Brod,1884,False,83719,3008,281,Max Brod,0.6281932521291285
Georg_Trakl,1887,False,101616,2345,312,Georg Trakl,0.6279908653719988
Robert_L._Eichelberger,1886,False,195868,2165,267,Robert L. Eichelberger,0.627828190322005
Monty_Woolley,1888,False,85145,3432,251,Monty Woolley,0.6272882397295353
Una_O'Connor_(actress),1880,False,69444,4023,240,Una O'Connor (actress),0.6265803070306808
Broncho_Billy_Anderson,1880,False,82256,2415,317,Broncho Billy Anderson,0.6264898172812073
John_Boyd_Orr,1880,False,142138,1807,328,"John Boyd Orr, 1st Baron Boyd-Orr",0.6264491195977252
Milan_Rastislav_Štefánik,1880,False,77771,1663,431,Milan Rastislav Štefánik,0.6256504609800233
Percy_Williams_Bridgman,1882,False,139382,2329,266,Percy Williams Bridgman,0.6254983526593073
Hans-Jürgen_von_Arnim,1889,False,72353,2732,293,Hans-Jürgen von Arnim,0.6250366594750185
Maurice_Utrillo,1883,False,60000,3726,255,Maurice Utrillo,0.6249802694732838
Charles_Sheeler,1883,False,85876,2439,296,Charles Sheeler,0.624641608936957
Artur_Schnabel,1882,False,81238,2293,316,Artur Schnabel,0.6246333914374906
Sylvia_Beach,1887,False,74783,2698,287,Sylvia Beach,0.624315498524917
James_Gleason,1882,False,75154,4291,214,James Gleason,0.6242763230345366
Gabriel_Voisin,1880,False,73277,1076,666,Gabriel Voisin,0.6242000372237373
William_Temple_(bishop),1881,False,87732,2271,306,William Temple (bishop),0.6241638406686998
Laurette_Taylor,1883,False,73545,2356,317,Laurette Taylor,0.6241174801935352
Bertram_Ramsay,1883,False,79298,3169,247,Bertram Ramsay,0.6233741825348804
Kuniaki_Koiso,1880,False,84041,3011,250,Kuniaki Koiso,0.6233138863464386
Syedna_Taher_Saifuddin,1888,False,104014,1442,405,Taher Saifuddin,0.6227883900753406
Henry_Maitland_Wilson,1881,False,126950,1299,414,Henry Maitland Wilson,0.6227053879116652
Prince_Naruhiko_Higashikuni,1887,False,91965,2587,263,Prince Naruhiko Higashikuni,0.6224423092055776
Edgar_Guest,1881,False,54005,3081,282,Edgar Guest,0.6224333101103013
Leo_Geyr_von_Schweppenburg,1886,False,89798,2509,266,Leo Geyr von Schweppenburg,0.6216960122321137
Vincent_Auriol,1884,False,131761,2533,233,Vincent Auriol,0.6215191522740005
Sacha_Guitry,1885,False,91426,3485,213,Sacha Guitry,0.6214250021610684
Eleanor_Farjeon,1881,False,84935,2903,244,Eleanor Farjeon,0.6213982956330766
Archibald_Hill,1886,False,120979,1981,277,Archibald Hill,0.620395856716206
Archibald_Hill,1886,False,120979,1981,277,Archibald Hill,0.620395856716206
Pearl_White,1889,False,84906,2848,241,Pearl White,0.6203242106727815
Geoffrey_de_Havilland,1882,False,95720,2675,241,Geoffrey de Havilland,0.6202350984791102
Allama_Mashriqi,1888,False,65394,1320,495,Inayatullah Khan Mashriqi,0.6201697751761341
Harry_Nyquist,1889,False,59018,3492,238,Harry Nyquist,0.6200280240606141
Ernst_Busch_(field_marshal),1885,False,97840,1717,329,Ernst Busch (field marshal),0.6198898160148809
Tommy_Burns_(boxer),1881,False,58728,3057,258,Tommy Burns (boxer),0.6198019722877185
Edna_May_Oliver,1883,False,58772,3934,218,Edna May Oliver,0.6192248327904458
Aurora_Quezon,1888,False,139343,2402,225,Aurora Quezon,0.6191702090600155
Rebecca_Helferich_Clarke,1886,False,86631,1672,342,Rebecca Clarke (composer),0.6188313467116652
Hubert_Latham,1883,False,139739,664,777,Hubert Latham,0.6188228220417407
Willem_Drees,1886,False,151055,1986,248,Willem Drees,0.6187465710317273
Robert_Robinson_(organic_chemist),1886,False,114240,1893,277,Robert Robinson (organic chemist),0.6182302268131454
Tudor_Arghezi,1880,False,155533,1065,413,Tudor Arghezi,0.6182107511844698
Dally_Messenger,1883,False,134158,1173,395,Dally Messenger,0.6181676274715204
Henry_F._Phillips,1889,False,34492,6284,199,Henry F. Phillips,0.6180674773050879
James_Somerville,1882,False,116143,1260,384,James Somerville,0.6177425874142572
Peter_Fraser_(New_Zealand_politician),1884,False,161840,1535,286,Peter Fraser (New Zealand politician),0.61738066463766
Gerhard_Ritter,1888,False,152695,1167,370,Gerhard Ritter,0.6172663299817143
"John_Jacob_Astor,_1st_Baron_Astor_of_Hever",1886,False,73479,2709,243,"John Jacob Astor, 1st Baron Astor of Hever",0.6172125455164517
Saint-John_Perse,1887,False,113597,2098,251,Saint-John Perse,0.6172000283881608
Joseph_Trumpeldor,1880,False,62431,1973,320,Joseph Trumpeldor,0.6167319357706106
Mills_Brothers,1889,False,94720,1100,457,The Mills Brothers,0.6163633158041425
Roger_Nash_Baldwin,1884,False,76804,1714,327,Roger Nash Baldwin,0.616209069100275
Hugo_Schmeisser,1884,False,64608,3479,212,Hugo Schmeisser,0.6161866948898163
Karl_von_Terzaghi,1883,False,67996,2328,270,Karl von Terzaghi,0.6161575959080432
Emilio_Mola,1887,False,59303,2751,252,Emilio Mola,0.6160424746687283
Charles_Ruggles,1886,False,80706,2746,227,Charlie Ruggles,0.6159942439647762
Petru_Groza,1884,False,112595,1521,309,Petru Groza,0.6154577156825515
"Bruce_Fraser,_1st_Baron_Fraser_of_North_Cape",1888,False,106339,1683,286,"Bruce Fraser, 1st Baron Fraser of North Cape",0.6148896389428113
Geraldine_Farrar,1882,False,87886,2022,264,Geraldine Farrar,0.6147089073668451
Harold_Hitz_Burton,1888,False,236252,1624,230,Harold Hitz Burton,0.6147067527621238
Kid_Ory,1886,False,56363,2553,260,Kid Ory,0.6144865435701685
Miles_Malleson,1888,False,63691,2435,256,Miles Malleson,0.6143085008965593
Paul_Wittgenstein,1887,False,78308,2010,273,Paul Wittgenstein,0.6142860553355055
Mamie_Smith,1883,False,68377,2856,224,Mamie Smith,0.6141381725974636
Martin_and_Osa_Johnson,1884,False,72577,1921,289,Martin and Osa Johnson,0.6141219566621956
Otto_Stern,1888,False,86448,2308,238,Otto Stern,0.6140526656548216
Cathleen_Nesbitt,1888,False,58690,4034,191,Cathleen Nesbitt,0.6138445882657243
Richmond_K._Turner,1885,False,78643,2987,206,Richmond K. Turner,0.6136557895763249
Noah_Beery,1882,False,68046,1971,285,Noah Beery Sr.,0.6134215234494952
Alexander_Patch,1889,False,101127,2618,205,Alexander Patch,0.6132623045678142
Jean_Patou,1880,False,65072,2803,225,Jean Patou,0.6131004801773032
Frits_Zernike,1888,False,93190,1944,256,Frits Zernike,0.6130621158537795
Hermann_Staudinger,1881,False,104957,2246,221,Hermann Staudinger,0.6127099387393867
Gottfried_Benn,1886,False,120982,1784,247,Gottfried Benn,0.6124267294475941
Hubert_Wilkins,1888,False,128961,1638,258,Hubert Wilkins,0.6123928647989076
José_Abad_Santos,1886,False,70606,2515,231,José Abad Santos,0.6123901325871577
Leon_Schlesinger,1884,False,72214,2915,208,Leon Schlesinger,0.6122210101854381
Inez_Milholland,1886,False,68733,2644,224,Inez Milholland,0.6120834193436225
Harry_Ricardo,1885,False,78720,2148,246,Harry Ricardo,0.6120501705923449
John_Tovey,1885,False,137137,1309,301,"John Tovey, 1st Baron Tovey",0.6120458784879921
René_Coty,1882,False,75285,3201,193,René Coty,0.6119478775814061
Amadeo_Bordiga,1889,False,87017,2045,245,Amadeo Bordiga,0.6118185145668863
Hugh_Lofting,1886,False,76449,1949,264,Hugh Lofting,0.6116634401334359
List_of_Dutch_supercentenarians#Ann_Jemimia_Flower,1885,False,61642,970,542,List of Dutch supercentenarians,0.6113872743953873
List_of_Dutch_supercentenarians#Geertje_Roelinga-de_Groot,1887,False,61642,970,542,List of Dutch supercentenarians,0.6113872743953873
Stanley_Forman_Reed,1884,False,151348,2018,206,Stanley Forman Reed,0.6111892122115554
Clive_Bell,1881,False,65574,3525,187,Clive Bell,0.6110528929728293
Roy_Geiger,1885,False,105262,2512,197,Roy Geiger,0.6108491933072933
Carlo_Carrà,1881,False,61305,2260,243,Carlo Carrà,0.6094552620299115
Ramón_Grau,1882,False,105782,2146,209,Ramón Grau,0.6090527806410901
Walter_Nash,1882,False,150589,1129,298,Walter Nash,0.6078055391108883
Moroni_Olsen,1889,False,52175,3349,191,Moroni Olsen,0.6073595464451405
Leopold_Ružička,1887,False,103999,1159,325,Leopold Ružička,0.6072812538923462
Victor_Francis_Hess,1883,False,93294,1800,234,Victor Francis Hess,0.6070220795364614
Giovanni_Messe,1883,False,69743,2140,223,Giovanni Messe,0.6061190928661958
Fritz_Reiner,1888,False,66585,2020,235,Fritz Reiner,0.605996565413972
Leevi_Madetoja,1887,False,243858,744,361,Leevi Madetoja,0.6053856956896785
Francesco_Baracca,1888,False,73701,2109,214,Francesco Baracca,0.6047101051984607
E._J._Pratt,1882,False,83099,1140,333,E. J. Pratt,0.6046315922924214
Xul_Solar,1887,False,72803,1716,247,Xul Solar,0.6044368187507928
Takeo_Kurita,1889,False,81505,2265,196,Takeo Kurita,0.6042900659802055
Roland_Young,1887,False,70363,2987,173,Roland Young,0.6041443656512494
J._Frank_Dobie,1888,False,86124,1283,289,J. Frank Dobie,0.6037498318278648
Sara_Allgood,1880,False,63320,2246,210,Sara Allgood,0.6035711746785657
Sigmund_Romberg,1887,False,71617,2175,206,Sigmund Romberg,0.603552740248922
Patriarch_Athenagoras_I_of_Constantinople,1886,False,104467,1033,326,Athenagoras I of Constantinople,0.6034863216771251
Vasily_Blyukher,1889,False,72333,2088,210,Vasily Blyukher,0.6033544119599067
Tôn_Đức_Thắng,1888,False,80280,1751,229,Tôn Đức Thắng,0.6032718938202281
Cyclone_Taylor,1884,False,80943,1182,310,Cyclone Taylor,0.6028533735742853
Willis_O'Brien,1886,False,82577,1698,227,Willis H. O'Brien,0.6023608596352295
Ichirō_Hatoyama,1883,False,98798,1517,233,Ichirō Hatoyama,0.6023529856736353
Florence_La_Badie,1888,False,77869,1329,280,Florence La Badie,0.6023224453953245
Marjorie_Rambeau,1889,False,74793,2271,192,Marjorie Rambeau,0.6022831600047645
Rómulo_Gallegos,1884,False,75046,1970,209,Rómulo Gallegos,0.6019762248815205
Karel_Doorman,1889,False,58808,2098,216,Karel Doorman,0.6017928016895329
René_Cassin,1887,False,85098,2054,194,René Cassin,0.6016380997138352
Owen_Moore,1886,False,58799,2331,200,Owen Moore,0.6014487911013726
Pat_Sullivan_(film_producer),1885,False,67250,1696,235,Pat Sullivan (film producer),0.6009548426513882
Hermann_Broch,1886,False,121920,2036,173,Hermann Broch,0.6008709714132037
Robert_L._Ghormley,1883,False,75005,1708,224,Robert L. Ghormley,0.6006861192829754
"Bob_Jones,_Sr.",1883,False,66099,626,625,Bob Jones Sr.,0.6000258750719424
Tom_Phillips_(Royal_Navy_officer),1888,False,92009,1351,244,Tom Phillips (Royal Navy officer),0.5996516496789561
Tarsila_do_Amaral,1886,False,70736,1499,244,Tarsila do Amaral,0.599405849105438
Bernardo_Houssay,1887,False,88685,1520,224,Bernardo Houssay,0.5993763017331472
Pascin,1885,False,71924,1310,269,Jules Pascin,0.5992311509604294
Jack_Holt_(actor),1888,False,58135,2365,189,Jack Holt (actor),0.5992087541030476
Joyce_Cary,1888,False,70024,1446,249,Joyce Cary,0.5989596475910005
Anna_Q._Nilsson,1888,False,54569,1913,217,Anna Q. Nilsson,0.5982728351285929
"Terry_de_la_Mesa_Allen,_Sr.",1888,False,113722,1161,248,Terry de la Mesa Allen Sr.,0.5980874891028855
Giovanni_Papini,1881,False,99173,1836,184,Giovanni Papini,0.5980541200217598
Mary_Webb,1881,False,67342,1487,241,Mary Webb,0.5979880538975596
Lothar_von_Arnauld_de_la_Perière,1886,False,62703,2089,193,Lothar von Arnauld de la Perière,0.5977397889492916
John_Cyril_Porte,1884,False,161825,446,634,John Cyril Porte,0.597622836170779
Elsa_Maxwell,1883,False,73543,2180,178,Elsa Maxwell,0.5975374916218585
Chester_Conklin,1886,False,63260,1915,202,Chester Conklin,0.59735350732436
Isaac_C._Kidd,1884,False,68037,2265,177,Isaac C. Kidd,0.5972872433513918
Georges_Bernanos,1888,False,63230,1887,201,Georges Bernanos,0.5967106875418752
George_Preca,1880,False,70750,911,346,George Preca,0.5960716391038504
George_Bancroft_(actor),1882,False,54884,2586,170,George Bancroft (actor),0.5960571741949182
Andrew_Higgins,1886,False,63150,1750,207,Andrew Higgins,0.5957505350838382
Frank_Lloyd,1886,False,88146,1617,195,Frank Lloyd,0.5953225831002938
Sveinn_Björnsson,1881,False,59742,1370,250,Sveinn Björnsson,0.5952439169469533
John_Franklin_Enders,1887,False,105896,1511,193,John Franklin Enders,0.5951717026087704
Richard_C._Tolman,1881,False,84483,2122,163,Richard C. Tolman,0.5946254106416019
Daniel_Jones_(phonetician),1881,False,50468,2850,160,Daniel Jones (phonetician),0.5946201401406372
George_David_Birkhoff,1884,False,73711,1698,195,George David Birkhoff,0.5944214815039792
Lancelot_Holland,1887,False,50995,1827,208,Lancelot Holland,0.5942102451474632
James_E._Casey,1888,False,37801,3519,155,James E. Casey,0.5941815298285019
John_Cunningham_(Royal_Navy_officer),1885,False,104935,841,307,John Cunningham (Royal Navy officer),0.5940864845438725
Francis_Browne,1880,False,88323,1511,197,Francis Browne,0.5937450004079605
Raoul_Lufbery,1885,False,75407,1124,260,Gervais Raoul Lufbery,0.5935779213584406
Clinton_Davisson,1881,False,98003,1766,171,Clinton Davisson,0.593498177286356
Marcel_Dupré,1886,False,54785,1634,213,Marcel Dupré,0.5929498875277783
Edgar_Adrian,1889,False,122840,1116,216,Edgar Adrian,0.5921618492837367
John_Alexander_Douglas_McCurdy,1886,False,77145,1004,272,John Alexander Douglas McCurdy,0.5918326749671803
Monteiro_Lobato,1882,False,68143,1009,281,Monteiro Lobato,0.5915731695519691
Giovanni_Gronchi,1887,False,90068,1405,195,Giovanni Gronchi,0.5913449506086005
Mary_Boland,1882,False,54746,1893,185,Mary Boland,0.5912355120711505
Harry_Hooper,1887,False,154693,1345,171,Harry Hooper,0.5908582754684902
Yitzhak_HaLevi_Herzog,1888,False,78244,1263,218,Yitzhak HaLevi Herzog,0.5908508165568532
Thomas_Sopwith,1888,False,64774,1403,213,Thomas Sopwith,0.5906650006240799
Walter_H._Schottky,1886,False,68964,1672,184,Walter H. Schottky,0.5905802560540593
Chester_Gillette,1883,False,41473,1877,201,Chester Gillette,0.5905653449495436
Walter_Terence_Stace,1886,False,131421,938,233,Walter Terence Stace,0.5901990701845137
Hans_Richter_(artist),1888,False,62264,2225,157,Hans Richter (artist),0.590144330576111
Asta_Nielsen,1881,False,80305,1378,197,Asta Nielsen,0.5897092687108164
Grace_Brown,1886,False,41852,1998,188,Murder of Grace Brown,0.5896168490423486
Manne_Siegbahn,1886,False,99164,1364,184,Manne Siegbahn,0.5891640819270477
Waite_Phillips,1883,False,52046,1221,245,Waite Phillips,0.5889172406062636
Boris_Shaposhnikov,1882,False,80138,2000,151,Boris Shaposhnikov,0.588765696517008
Alain-Fournier,1886,False,62667,1521,193,Alain-Fournier,0.5885537140192781
Edward_Bach,1886,False,55686,1399,213,Edward Bach,0.5885202110190397
Sisavang_Vong,1885,False,52246,1793,182,Sisavang Vong,0.5883407488061267
Friedrich_Kellner,1885,False,108541,576,387,Friedrich Kellner,0.5882796000435868
Nick_LaRocca,1889,False,55601,1298,224,Nick LaRocca,0.5882266798161857
Susan_Sutherland_Isaacs,1885,False,78595,1394,185,Susan Sutherland Isaacs,0.5871203022261174
Walter_Knott,1889,False,43331,1949,178,Walter Knott,0.5870771589336148
Nikolaos_Plastiras,1883,False,140327,995,200,Nikolaos Plastiras,0.5867796974808733
Lincoln_Beachey,1887,False,89123,846,262,Lincoln J. Beachey,0.58640410363307
Douglass_Dumbrille,1889,False,59841,1589,180,Douglass Dumbrille,0.5862474464962377
Robert_Hichens_(sailor),1882,False,77353,1474,175,Robert Hichens (sailor),0.5861954895240945
Zack_Wheat,1888,False,168750,1223,161,Zack Wheat,0.5861932531928682
Mitsuru_Ushijima,1887,False,51145,3224,124,Mitsuru Ushijima,0.5856370067222593
Anton_Flettner,1885,False,101062,891,235,Anton Flettner,0.5856053912580051
James_B._Sumner,1887,False,88665,1211,190,James B. Sumner,0.5854454171155208
Johnny_Gruelle,1880,False,79810,1441,173,Johnny Gruelle,0.5854212249895617
Harold_Rainsford_Stark,1880,False,64743,1579,173,Harold Rainsford Stark,0.5853977296995345
Harry_Benjamin,1885,False,62382,1499,180,Harry Benjamin,0.5850954483983705
Lotte_Lehmann,1888,False,63670,1418,185,Lotte Lehmann,0.584884703753491
Frans_Eemil_Sillanpää,1888,False,83936,1484,165,Frans Eemil Sillanpää,0.5848537957417396
Walther_Schwieger,1885,False,46915,2623,138,Walther Schwieger,0.5845260718438868
Jisaburō_Ozawa,1886,False,69821,2074,140,Jisaburō Ozawa,0.5844292163057226
Pauline_Frederick,1883,False,90350,1046,204,Pauline Frederick,0.583948330317329
Volodymyr_Vynnychenko,1880,False,122902,689,264,Volodymyr Vynnychenko,0.5832478270644035
Velimir_Khlebnikov,1885,False,66405,1400,177,Velimir Khlebnikov,0.5831730853085744
B._C._Forbes,1880,False,45569,3022,125,B. C. Forbes,0.5828575457528787
Gaby_Deslys,1881,False,70652,1040,215,Gaby Deslys,0.5827603262196689
Willis_Augustus_Lee,1888,False,76996,1513,159,Willis Augustus Lee,0.5826826512501793
Panait_Istrati,1884,False,64709,905,244,Panait Istrati,0.5819330715332668
Vicki_Baum,1888,False,66062,1439,169,Vicki Baum,0.5819253064885697
Walther_Wever_(general),1887,False,58133,1595,164,Walther Wever (general),0.5819204904473718
Eurico_Gaspar_Dutra,1883,False,77920,1204,182,Eurico Gaspar Dutra,0.581827878199862
Ugo_Cavallero,1880,False,97382,1439,151,Ugo Cavallero,0.5818100517282615
Alfred_Carlton_Gilbert,1884,False,84403,1104,185,Alfred Carlton Gilbert,0.5808013898561079
Josiah_Stamp,1880,False,100995,1059,180,"Josiah Stamp, 1st Baron Stamp",0.5805215808693572
Will_Cuppy,1884,False,83580,771,248,Will Cuppy,0.580301001201491
Eric_Coates,1886,False,47167,1827,154,Eric Coates,0.580107917161533
Lascelles_Abercrombie,1881,False,60836,1415,168,Lascelles Abercrombie,0.5800937616925937
Hannes_Kolehmainen,1889,False,165609,1198,143,Hannes Kolehmainen,0.5799472073013903
Victor_Goldschmidt,1888,False,96095,867,211,Victor Goldschmidt,0.5798367430156998
Karl_Valentin,1882,False,61147,1343,170,Karl Valentin,0.5791244435403231
Georges_Mandel,1885,False,58984,1343,171,Georges Mandel,0.5789030378784261
Joaquín_Turina,1882,False,53024,1616,156,Joaquín Turina,0.5788541368092498
Sophie_Treadwell,1885,False,97050,672,259,Sophie Treadwell,0.5788232301055689
Abe_Attell,1883,False,57185,1168,190,Abe Attell,0.5786766662726774
Franklin_Pierce_Adams,1881,False,60166,1243,177,Franklin Pierce Adams,0.578303333800434
Günther_Quandt,1881,False,46027,3877,101,Günther Quandt,0.5779540669578788
Percy_Kilbride,1888,False,60407,2765,109,Percy Kilbride,0.5776252816741015
Ernest_Ansermet,1883,False,71294,1153,173,Ernest Ansermet,0.5772213686273581
Hans_Fischer,1881,False,81728,1257,155,Hans Fischer,0.5768077940019708
Alfredo_Casella,1883,False,63189,1601,141,Alfredo Casella,0.5763421970385765
William_Hood_Simpson,1888,False,94391,1529,130,William Hood Simpson,0.5762507123147873
Theodor_Svedberg,1884,False,91249,1193,153,Theodor Svedberg,0.575995608895654
Norman_Haworth,1883,False,86803,1066,168,Norman Haworth,0.575972255243432
Ernest_Marsden,1889,False,62474,1374,154,Ernest Marsden,0.5757758056332789
Döme_Sztójay,1883,False,87926,1033,170,Döme Sztójay,0.5756392921624327
Ernst_Heinkel,1888,False,58480,1958,125,Ernst Heinkel,0.5751932874230298
Maude_Fealy,1881,False,54155,2057,124,Maude Fealy,0.575100308883701
Gian_Francesco_Malipiero,1882,False,82017,935,181,Gian Francesco Malipiero,0.5742173410327488
Syed_Sulaiman_Nadvi,1884,False,59235,1115,174,Sulaiman Nadvi,0.5740598786709336
Nevile_Henderson,1882,False,66999,1275,152,Nevile Henderson,0.573889816681888
Rembrandt_Bugatti,1884,False,52891,1347,157,Rembrandt Bugatti,0.5738690111785422
William_Ronald_Dodds_Fairbairn,1889,False,67010,1426,141,Ronald Fairbairn,0.5738016501184466
Louis_Wolheim,1880,False,72328,1335,143,Louis Wolheim,0.5734848534147161
William_L._Laurence,1888,False,65980,1329,147,William L. Laurence,0.5734362820589671
"Philip_Noel-Baker,_Baron_Noel-Baker",1889,False,129773,427,330,Philip Noel-Baker,0.5730530389037577
Eva_Morris,1885,False,34304,1037,216,Eva Morris,0.5730405580880052
Otto_Fritz_Meyerhof,1884,False,88743,986,165,Otto Fritz Meyerhof,0.5730048309950346
Ralph_Hartley,1888,False,59095,1001,183,Ralph Hartley,0.5727430646934034
Harvey_Spencer_Lewis,1883,False,57522,1181,163,Harvey Spencer Lewis,0.5726764877985655
Marguerite_Clark,1883,False,68000,1093,162,Marguerite Clark,0.5721843617378163
Arnold_Zweig,1887,False,73145,982,170,Arnold Zweig,0.5717821236745239
John_Foulds,1880,False,89578,717,207,John Foulds,0.5717229469430659
Alfonso_de_Orleans_y_Borbón,1886,False,140480,1476,110,"Infante Alfonso, Duke of Galliera",0.5717041764470757
Roger_Martin_du_Gard,1881,False,82083,1298,134,Roger Martin du Gard,0.571257396665291
Harry_H._Laughlin,1880,False,59804,1625,127,Harry H. Laughlin,0.5712015555761544
Bror_von_Blixen-Finecke,1886,False,44078,2650,106,Bror von Blixen-Finecke,0.5709869151073966
Mineichi_Koga,1885,False,62396,2271,104,Mineichi Koga,0.5707640358946983
Tuti_Yusupova,1880,False,47409,817,220,Tuti Yusupova,0.5704890604057485
Raymonde_de_Laroche,1882,False,51487,985,183,Raymonde de Laroche,0.5704432865526426
Ralph_DePalma,1884,False,74669,922,170,Ralph DePalma,0.5700236118821225
Ernst_Kretschmer,1888,False,50115,1644,129,Ernst Kretschmer,0.5699576487359156
Antoinette_Perry,1888,False,79594,1784,109,Antoinette Perry,0.5698938462567823
Ture_Nerman,1886,False,74696,442,348,Ture Nerman,0.569714152182425
Marie_Doro,1882,False,54574,946,181,Marie Doro,0.5694764260351531
Wilhelm_Backhaus,1884,False,64741,1023,161,Wilhelm Backhaus,0.569258435623545
Matt_Moore_(actor),1888,False,47102,878,198,Matt Moore (actor),0.5687245725042229
Władysław_Raczkiewicz,1885,False,64086,1171,145,Władysław Raczkiewicz,0.568721839568378
"Arthur_Schlesinger,_Sr.",1888,False,69731,823,184,Arthur M. Schlesinger Sr.,0.568716322311929
Corrado_Gini,1884,False,56296,1370,135,Corrado Gini,0.568465846784665
Oliver_Wallace,1887,False,68499,1481,122,Oliver Wallace,0.5684452797958189
George_Jean_Nathan,1882,False,44793,1353,145,George Jean Nathan,0.5683132246677551
Margaret_Caroline_Anderson,1886,False,97658,661,197,Margaret C. Anderson,0.5679631060781613
Mary_Nash,1884,False,49410,1586,126,Mary Nash,0.5676975989920566
Eugen_Leviné,1883,False,49299,1205,150,Eugen Leviné,0.5676955530858278
Archie_Hahn,1880,False,167553,817,140,Archie Hahn,0.5669207079665913
Robert_Esnault-Pelterie,1881,False,59975,961,163,Robert Esnault-Pelterie,0.5668663400612741
Ma_Zhanshan,1885,False,100700,810,158,Ma Zhanshan,0.5662851283193105
Otto_Bauer,1881,False,66010,1256,130,Otto Bauer,0.5662504506207067
Edgar_J._Kaufmann,1885,False,52228,3191,85,Edgar J. Kaufmann,0.5659467999227442
Dick_Elliott,1886,False,43670,2444,100,Dick Elliott,0.5659442990676193
Friedrich_Bergius,1884,False,85933,948,145,Friedrich Bergius,0.5658160163458187
Walter_Rudolf_Hess,1881,False,85499,1245,121,Walter Rudolf Hess,0.5657890113454008
Margaret_Wycherly,1881,False,48511,1858,111,Margaret Wycherly,0.5656457161766207
Toyoda_Soemu,1885,False,57801,1848,106,Soemu Toyoda,0.5654850635239413
Johan_Laidoner,1884,False,68819,791,175,Johan Laidoner,0.5652239725571232
Henry_Fillmore,1881,False,55104,1161,140,Henry Fillmore,0.5650159624277212
Aleksandr_Vertinsky,1889,False,54557,916,163,Alexander Vertinsky,0.5641622468663623
Paul_Karrer,1889,False,82601,930,143,Paul Karrer,0.5641434434606316
Edward_Calvin_Kendall,1886,False,86269,1046,129,Edward Calvin Kendall,0.5636890295476585
Hugo_Bergmann,1883,False,50508,1305,129,Hugo Bergmann,0.5636280822390561
James_Stephenson,1889,False,46103,1058,150,James Stephenson,0.5629449944612841
Antisa_Khvichava,1880,False,45568,613,236,Antisa Khvichava,0.5626814762944349
Beno_Gutenberg,1889,False,52681,1093,139,Beno Gutenberg,0.56234145303316
Valeska_Suratt,1882,False,60894,777,171,Valeska Suratt,0.5621998858551225
Lew_Cody,1884,False,51498,1287,125,Lew Cody,0.5620462600056995
Otto_Plath,1885,False,50013,2014,98,Otto Plath,0.5619107996924864
Harry_Ruby,1885,False,47565,1069,144,Harry Ruby,0.5619095706332609
Gunichi_Mikawa,1888,False,62509,1235,121,Gunichi Mikawa,0.5617933914365665
Norman_Scott_(Medal_of_Honor),1889,False,58566,1469,111,Norman Scott (admiral),0.5617783809284026
Martha_Wentworth,1889,False,42538,1854,106,Martha Wentworth,0.561619031129628
Arthur_S._Carpender,1884,False,93400,647,172,Arthur S. Carpender,0.561332580621698
George_Minot,1885,False,106357,926,126,George Minot,0.5612681614949582
André_Marty,1886,False,57956,939,146,André Marty,0.5610588054022684
Adolphe_Pégoud,1889,False,58822,1327,115,Adolphe Pégoud,0.5607045542662221
Rudolf_Weigl,1883,False,56972,955,143,Rudolf Weigl,0.5604761579909061
Lauri_Kristian_Relander,1883,False,74693,696,168,Lauri Kristian Relander,0.5602866531139894
Hasui_Kawase,1883,False,49601,1550,109,Hasui Kawase,0.5602677996897936
Eleazar_López_Contreras,1883,False,62683,1035,130,Eleazar López Contreras,0.5599121981296447
Mary_Alden,1883,False,47369,1095,135,Mary Alden,0.5597588126554415
"Adolf_Friedrich_VI,_Grand_Duke_of_Mecklenburg-Strelitz",1882,False,120288,886,121,"Adolphus Frederick VI, Grand Duke of Mecklenburg-Strelitz",0.5593937661831665
Frigyes_Riesz,1880,False,50992,1082,132,Frigyes Riesz,0.5593523564933341
Josef_Frings,1887,False,69055,651,177,Josef Frings,0.5591610965227565
Edwin_Fischer,1886,False,45078,887,157,Edwin Fischer,0.5591603241956452
Charles_Nordhoff,1887,False,54310,970,139,Charles Nordhoff,0.559131849490216
Rupert_Downes,1885,False,130435,321,310,Rupert Downes,0.5590338941455086
Henry_Kent_Hewitt,1887,False,74292,1210,110,Henry Kent Hewitt,0.5588028247672432
Hitoshi_Imamura,1886,False,56765,1595,100,Hitoshi Imamura,0.5585065904850738
Peter_Stoner,1888,False,49130,763,168,Peter Stoner,0.5582099431342752
Zoltán_Tildy,1889,False,68556,765,151,Zoltán Tildy,0.5580217719788543
Louis_Chauvin,1881,False,36720,2424,90,Louis Chauvin,0.558017068844964
Joseph_Bech,1887,False,82668,931,124,Joseph Bech,0.5578554079827144
Yusif_Vazir_Chamanzaminli,1887,False,99541,311,327,Yusif Vazir Chamanzaminli,0.5564127755193489
Milton_Sills,1882,False,65854,781,143,Milton Sills,0.555922581011381
Wyndham_Halswelle,1882,False,88458,662,150,Wyndham Halswelle,0.5559098974692488
Elsie_Ferguson,1883,False,55843,671,169,Elsie Ferguson,0.5557922067215031
Herbert_Spencer_Gasser,1888,False,83566,755,137,Herbert Spencer Gasser,0.5557746405372673
Millard_Harmon,1888,False,52878,2054,85,Millard Harmon,0.5557342004702185
Frederick_Handley_Page,1885,False,58474,831,140,Frederick Handley Page,0.5555635484082899
Paul_Bernays,1888,False,75505,1013,113,Paul Bernays,0.5550924815622782
Maude_Farris-Luse,1887,False,42019,541,220,Maude Farris-Luse,0.554675376267839
Florence_Turner,1885,False,79098,710,142,Florence Turner,0.554671007106585
Ethel_Clayton,1882,False,62912,579,178,Ethel Clayton,0.5542104876078258
Phraya_Manopakorn_Nititada,1884,False,75479,614,159,Phraya Manopakorn Nititada,0.5539243703055404
Felicjan_Sławoj_Składkowski,1885,False,85468,613,153,Felicjan Sławoj Składkowski,0.5537234398376047
Pedro_Pablo_Ramírez,1884,False,62130,876,127,Pedro Pablo Ramírez,0.5537063733304534
Paul_Popenoe,1888,False,67846,721,143,Paul Popenoe,0.5536896798183162
Mary_MacLane,1881,False,58235,822,135,Mary MacLane,0.5536144977358476
Jorge_Chávez,1887,False,57193,843,133,Jorge Chávez,0.5535399972491031
James_Cruze,1884,False,64811,680,150,James Cruze,0.5532134670893784
Kurt_Atterberg,1887,False,53184,1192,107,Kurt Atterberg,0.5530530913492706
Kamato_Hongo,1887,False,35803,553,217,Kamato Hongo,0.552880323612371
Garfield_Wood,1880,False,56566,836,131,Garfield Wood,0.5524915471483319
Paul_Ramadier,1888,False,128136,783,111,Paul Ramadier,0.5521966143268392
Richard_Oswald,1880,False,53850,594,173,Richard Oswald,0.5521213000967009
Oren_E._Long,1889,False,55168,900,124,Oren E. Long,0.5520465060904894
Nicholas_Schenck,1881,False,42112,1155,113,Nicholas Schenck,0.55179581438159
Herman_Bing,1889,False,39357,1212,111,Herman Bing,0.5514539135249886
Alf_Common,1880,False,51651,862,128,Alf Common,0.5513239689622065
Hong_Yi,1880,False,87894,721,126,Hong Yi,0.5512147272241232
Elsie_J._Oxenham,1880,False,83288,409,212,Elsie J. Oxenham,0.551167738424128
Tadeusz_Kutrzeba,1886,False,53559,1089,108,Tadeusz Kutrzeba,0.5510157198168426
William_S._Pye,1880,False,48426,937,121,William S. Pye,0.5505765967465215
Jack_Hoxie,1885,False,53488,636,154,Jack Hoxie,0.5497635397590989
Elsa_Brändström,1888,False,58244,620,152,Elsa Brändström,0.5494039529379754
Thomas_de_Hartmann,1885,False,52403,874,120,Thomas de Hartmann,0.5490817819692168
Evadne_Price,1888,False,69649,390,223,Evadne Price,0.5490735275854403
Jonas_H._Ingram,1886,False,79045,503,165,Jonas H. Ingram,0.5489269485110576
Nobutake_Kondō,1886,False,56251,1798,78,Nobutake Kondō,0.5486459139509072
Watsuji_Tetsuro,1889,False,52073,705,139,Tetsuro Watsuji,0.5486209507469277
Lima_Barreto,1881,False,60549,592,151,Lima Barreto,0.5480351054840625
Alfonso_López_Pumarejo,1886,False,65988,916,107,Alfonso López Pumarejo,0.5480103092472056
Shigeyoshi_Inoue,1889,False,66329,1251,88,Shigeyoshi Inoue,0.5474607314639556
George_Fitzmaurice,1885,False,61375,646,137,George Fitzmaurice,0.5471224007515657
Shōji_Nishimura,1889,False,55571,1331,87,Shōji Nishimura,0.5464791523010036
Arturo_Rawson,1885,False,66053,800,113,Arturo Rawson,0.5464223621591597
Ion_Agârbiceanu,1882,False,138541,332,198,Ion Agârbiceanu,0.5458508116094928
Irene_Fenwick,1887,False,41497,1658,82,Irene Fenwick,0.5455554533476
Alison_Uttley,1884,False,55239,1012,99,Alison Uttley,0.5451881366119459
Alcide_Nunez,1884,False,46229,654,139,Alcide Nunez,0.544744634985094
Marjorie_Newell_Robb,1889,False,67624,1883,68,Marjorie Newell Robb,0.5443887770307475
Claud_Allister,1888,False,44990,729,127,Claud Allister,0.5441015927155086
John_Painter_(supercentenarian),1888,False,37571,361,252,John Painter (supercentenarian),0.5427458025764277
Belle_da_Costa_Greene,1883,False,46030,1070,95,Belle da Costa Greene,0.5426116135826189
Harold_Saxton_Burr,1889,False,53004,500,158,Harold Saxton Burr,0.5424311852907505
Luo_Meizhen,1885,False,43496,705,125,Luo Meizhen,0.5419619409440355
Claude_Dornier,1884,False,54490,846,103,Claude Dornier,0.5416577356536564
Lilias_Armstrong,1882,False,375430,144,458,Lilias Armstrong,0.5414555496082114
Paul_Leni,1885,False,56463,768,108,Paul Leni,0.5413174486449063
Isabel_Randolph,1889,False,45081,588,140,Isabel Randolph,0.5412380089707702
José_Mendes_Cabeçadas,1883,False,69736,672,112,José Mendes Cabeçadas,0.5411830953591105
Marie_Brémont,1886,False,34893,477,183,Marie Brémont,0.5411763221078817
Theodore_Kosloff,1882,False,54491,632,125,Theodore Kosloff,0.5411611085668168
Milan_Vidmar,1885,False,47080,664,125,Milan Vidmar,0.5410212234356798
Homer_S._Ferguson,1889,False,55120,737,111,Homer S. Ferguson,0.5409992608293831
Tony_Jannus,1889,False,64520,741,106,Tony Jannus,0.5409000440232202
Giovanni_Battista_Caproni,1886,False,65424,2675,56,Giovanni Battista Caproni,0.5406543784873784
Eddie_Collins_(actor),1883,False,40310,1665,75,Eddie Collins (actor),0.5406303632334989
Paul_Legentilhomme,1884,False,51774,548,139,Paul Legentilhomme,0.5402382645955704
Mokichi_Okada,1882,False,39457,852,108,Mokichi Okada,0.5401453780926977
Walter_Baldwin,1889,False,45849,1766,70,Walter Baldwin,0.5399170702849865
Jan_Kubelík,1880,False,62540,653,114,Jan Kubelík,0.5398250766042136
DeWitt_Wallace,1889,False,47037,1154,85,DeWitt Wallace,0.5395104618216243
Hans_Gerhard_Creutzfeldt,1885,False,39867,995,96,Hans Gerhard Creutzfeldt,0.5393220941670538
Hans_Wilsdorf,1881,False,34095,3858,55,Hans Wilsdorf,0.5393165660603332
Hans_Moser_(actor),1880,False,50513,598,127,Hans Moser (actor),0.5391398119206892
Ilo_Wallace,1888,False,40960,1346,80,Ilo Wallace,0.538841924897416
Alfred_A._Cunningham,1882,False,86812,468,133,Alfred A. Cunningham,0.5387638416354991
Aubrey_Fitch,1883,False,69346,712,102,Aubrey Fitch,0.5387185831622276
Hidetsugu_Yagi,1886,False,65767,867,91,Hidetsugu Yagi,0.5386950278709483
Louis_Charles_Breguet,1880,False,46242,527,142,Louis Charles Breguet,0.5384349067074103
Catherine_Bramwell-Booth,1883,False,54377,458,153,Catherine Bramwell-Booth,0.5383859045662006
Alan_Goodrich_Kirk,1888,False,77218,546,119,Alan Goodrich Kirk,0.53815989207264
Manuel_Prado_Ugarteche,1889,False,57327,637,114,Manuel Prado Ugarteche,0.5380418609544164
Francisco_Canaro,1888,False,44291,807,103,Francisco Canaro,0.5378017354406518
Thomas_J._Moore,1883,False,48340,582,127,Tom Moore (actor),0.5377329559314143
Refik_Saydam,1881,False,80071,527,120,Refik Saydam,0.5377138820136327
Nikolai_Astrup,1880,False,73948,1112,75,Nikolai Astrup,0.5372790232917402
C._K._Scott-Moncrieff,1889,False,69805,238,291,C. K. Scott Moncrieff,0.5371893205321164
Pier_Ruggero_Piccio,1880,False,78855,254,250,Pier Ruggero Piccio,0.5366469826897655
Raimu,1883,False,49628,864,93,Raimu,0.5364159994986193
Julian_C._Smith,1885,False,68013,724,96,Julian C. Smith,0.5362180663760183
Florence_Easton,1882,False,60395,491,132,Florence Easton,0.5361619607335482
Aleksandras_Stulginskis,1885,False,60138,490,132,Aleksandras Stulginskis,0.5360437018045879
Kathleen_Howard,1884,False,60484,639,107,Kathleen Howard,0.5359619451549857
Sam_McDaniel,1886,False,40471,1176,81,Sam McDaniel,0.5358004955291796
Conrad_Helfrich,1886,False,46918,560,126,Conrad Helfrich,0.5357842565900525
Ralph_Craig,1889,False,102575,535,106,Ralph Craig,0.5354160730926338
Joseph_Egger,1889,False,37793,1452,73,Joseph Egger,0.5350383525260408
Elizabeth_Craig_(writer),1883,False,86052,357,156,Elizabeth Craig (writer),0.5350110706681427
Hiroaki_Abe,1889,False,50742,1088,78,Hiroaki Abe,0.5344911937017932
Suzanne_Duchamp,1889,False,47326,635,110,Suzanne Duchamp,0.5341709603519972
Daniel_E._Barbey,1889,False,123375,554,96,Daniel E. Barbey,0.5339311954286309
Giuseppe_Mario_Bellanca,1886,False,58340,541,116,Giuseppe Mario Bellanca,0.5336732460564133
Harukichi_Hyakutake,1888,False,49814,1313,70,Harukichi Hyakutake,0.53356756695125
Chujiro_Hayashi,1880,False,37682,688,109,Chujiro Hayashi,0.5335535498399911
Eduard_Ritter_von_Schleich,1888,False,51949,601,110,Eduard Ritter von Schleich,0.5334992268245989
Percy_Marmont,1883,False,41076,517,131,Percy Marmont,0.5331417011406965
Thomas_Sigismund_Stribling,1881,False,82159,530,106,Thomas Sigismund Stribling,0.5328045406859668
Zhou_Zuoren,1885,False,46457,629,107,Zhou Zuoren,0.5324473253757676
Florence_Reed,1883,False,48155,521,122,Florence Reed,0.5323554968158206
Yehezkel_Abramsky,1886,False,53235,382,156,Yehezkel Abramsky,0.5323082925923961
John_Lavarack,1885,False,89831,541,101,John Lavarack,0.5322647934913554
Lynn_Thorndike,1882,False,70305,775,84,Lynn Thorndike,0.5322604051049287
Roberto_María_Ortiz,1886,False,60271,709,92,Roberto María Ortiz,0.5322598406574481
Eulalio_Gutiérrez,1881,False,60483,511,113,Eulalio Gutiérrez,0.5310617341856644
"Walter_Citrine,_1st_Baron_Citrine",1887,False,69084,362,146,"Walter Citrine, 1st Baron Citrine",0.5306787650807756
Louis_Durey,1888,False,47193,725,93,Louis Durey,0.5306693422944975
Kosaku_Yamada,1886,False,53044,495,117,Kosaku Yamada,0.5300022341010924
Venkatarama_Ramalingam_Pillai,1888,False,56463,1261,65,Venkatarama Ramalingam Pillai,0.5299715714661606
Herbert_Silberer,1882,False,43720,466,128,Herbert Silberer,0.5294272538056447
Bessie_Barriscale,1884,False,55118,446,123,Bessie Barriscale,0.5289410240731686
José_Eustasio_Rivera,1888,False,52435,513,111,José Eustasio Rivera,0.5288424053634214
Duffy_Lewis,1888,False,54373,556,103,Duffy Lewis,0.5286416608504447
Oscar_Griswold,1886,False,56463,622,94,Oscar Griswold,0.5285146945028928
Lotte_Herrlich,1883,False,36290,480,128,Lotte Herrlich,0.5282312949096892
Al_Christie,1881,False,44480,522,112,Al Christie,0.5279232247079865
Nell_Brinkley,1886,False,91277,558,89,Nell Brinkley,0.5276450471709078
Bess_Streeter_Aldrich,1881,False,75850,685,81,Bess Streeter Aldrich,0.5276205007290211
Enrico_Mizzi,1885,False,43980,396,141,Enrico Mizzi,0.5275970612624354
August_Zaleski,1883,False,62066,589,93,August Zaleski,0.5273560383556084
Leonard_Mudie,1883,False,44471,729,87,Leonard Mudie,0.5270383153418982
Ida_Rentoul_Outhwaite,1888,False,44404,678,91,Ida Rentoul Outhwaite,0.5269542526280754
Henri_Dentz,1881,False,41505,896,77,Henri Dentz,0.5262275811443452
Angelo_Iachino,1889,False,51393,623,91,Angelo Iachino,0.5260343962060959
Theodore_Stark_Wilkinson,1888,False,74761,426,110,Theodore Stark Wilkinson,0.525992980844954
Morton_Deyo,1887,False,94035,389,112,Morton Deyo,0.5258863169642466
Olga_Petrova,1884,False,45817,580,98,Olga Petrova,0.5258614089586605
Toivo_Kuula,1883,False,50080,573,95,Toivo Kuula,0.5250940891729106
Robert_Kerr_(athlete),1882,False,68751,331,137,Robert Kerr (athlete),0.5248286886193684
Reggie_Walker,1889,False,64034,525,94,Reggie Walker,0.5245084789862016
Carlo_Michelstaedter,1887,False,43223,489,108,Carlo Michelstaedter,0.5239107485228778
Phil_Mead,1887,False,56070,601,87,Phil Mead,0.5238101237552035
Maurice_Nicoll,1884,False,42154,792,78,Maurice Nicoll,0.5235904157253516
Tich_Freeman,1888,False,54108,672,81,Tich Freeman,0.5234363326887174
George_S._Rentz,1882,False,46053,615,89,George S. Rentz,0.5233884712737149
"John_W._Wilcox,_Jr.",1882,False,67577,527,90,"John W. Wilcox, Jr.",0.5232296817307587
Wyndham_Standing,1880,False,41207,414,123,Wyndham Standing,0.5230720669384369
George_A._Malcolm,1881,False,67827,512,91,George A. Malcolm,0.52284061767637
Philip_Francis_Nowlan,1888,False,46943,719,79,Philip Francis Nowlan,0.5226514700404604
Albert_Hill_(athlete),1889,False,98995,361,109,Albert Hill (athlete),0.52256492819378
Sheila_Kaye-Smith,1887,False,50243,457,106,Sheila Kaye-Smith,0.5225601660845814
Albert_Plesman,1889,False,35946,831,77,Albert Plesman,0.5224609985238451
Othmar_Schoeck,1886,False,53629,594,86,Othmar Schoeck,0.522427109428482
Michał_Sopoćko,1888,False,54156,630,82,Michał Sopoćko,0.5220949355267949
Martin_O'Meara,1882,False,41776,431,114,Martin O'Meara,0.5215418796019967
William_Edmunds_(actor),1886,False,42199,678,82,William Edmunds (actor),0.5215121922035933
Dorothy_Payne_Whitney,1887,False,63082,840,66,Dorothy Payne Whitney,0.5212355839703195
Ferenc_Münnich,1886,False,78653,404,101,Ferenc Münnich,0.5210322381628278
Aritomo_Gotō,1888,False,58172,649,77,Aritomo Gotō,0.5207408934236919
Jeanne_de_Salzmann,1889,False,34779,596,92,Jeanne de Salzmann,0.5207006979500977
Ben-Zion_Dinur,1884,False,65486,427,100,Ben-Zion Dinur,0.5206219053762889
Bee_Ho_Gray,1885,False,51093,407,110,Bee Ho Gray,0.5203528725627246
Ernst_Robert_Curtius,1886,False,51473,695,75,Ernst Robert Curtius,0.5201538456582351
Marthe_Richard,1889,False,45480,725,75,Marthe Richard,0.5200111380549819
Julius_Fromm,1883,False,48242,580,85,Julius Fromm,0.5199901141438935
Jean_Decoux,1884,False,53582,905,63,Jean Decoux,0.5190743749013295
Robert_Henry_English,1888,False,38575,558,90,Robert Henry English,0.5188886783519288
Kenneth_Whiting,1881,False,119790,434,83,Kenneth Whiting,0.5187862334674462
Fritz_Pfleumer,1881,False,39058,713,76,Fritz Pfleumer,0.5184612078671268
Charles_Alan_Pownall,1887,False,68972,478,86,Charles Alan Pownall,0.5182141573764323
Grover_Whalen,1886,False,52155,482,91,Grover Whalen,0.518094241060489
William_Barnard_Rhodes-Moorhouse,1887,False,49486,361,115,William Barnard Rhodes-Moorhouse,0.5176126095175458
Huntley_Gordon,1887,False,44756,411,105,Huntley Gordon,0.5173004926891771
Madame_de_Meuron,1882,False,37045,802,70,Louise Elisabeth de Meuron,0.5171174146016293
Alfons_Maria_Jakob,1884,False,39620,619,80,Alfons Maria Jakob,0.516936587442698
Harry_Hillman,1881,False,159339,348,89,Harry Hillman,0.516887023132413
Gisela_Richter,1882,False,50260,386,106,Gisela Richter,0.5168071454534179
Lester_Cuneo,1888,False,51488,450,93,Lester Cuneo,0.5166726747202673
Michael_Fekete,1886,False,40951,399,108,Michael Fekete,0.5164655600060034
Husain_Salaahuddin,1881,False,34390,466,100,Husain Salaahuddin,0.5164433181268876
André_François-Poncet,1887,False,48550,665,72,André François-Poncet,0.516231415122631
Charles_Tomlinson_Griffes,1884,False,66606,241,151,Charles Tomlinson Griffes,0.5156732030420134
Ola_Raknes,1887,False,137199,287,105,Ola Raknes,0.5155315095809591
Carl_Ebert,1887,False,59885,486,82,Carl Ebert,0.5151038458895911
Virginia_Pearson,1886,False,46965,631,73,Virginia Pearson,0.5150123376453927
Edward_Sheldon,1886,False,47045,407,98,Edward Sheldon,0.5146098377316892
Robert_Alfred_Theobald,1884,False,63415,459,83,Robert Alfred Theobald,0.5144125086045269
Harald_Sverdrup_(oceanographer),1888,False,45446,477,87,Harald Sverdrup (oceanographer),0.5142586989660759
Princess_Sophie_of_Schönburg-Waldenburg,1885,False,112392,279,109,Princess Sophie of Albania,0.5141592792405981
Arthur_E._Andersen,1885,False,38884,1178,54,Arthur E. Andersen,0.513880023442587
Henry_Norwest,1884,False,37620,639,74,Henry Norwest,0.5135839960995616
Max_Ritter_von_Müller,1887,False,65902,242,142,Max Ritter von Müller,0.5135234971469083
Esteban_Terradas_i_Illa,1883,False,49751,243,153,Esteban Terradas i Illa,0.5134250238596932
Konstantinos_Tsaldaris,1884,False,98418,403,81,Konstantinos Tsaldaris,0.5133172452876317
Julia_Sanderson,1887,False,45733,341,111,Julia Sanderson,0.5133047827476632
Walther_Meissner,1882,False,39205,635,73,Walther Meissner,0.5132083922557287
Reginald_Farrer,1880,False,58539,434,85,Reginald Farrer,0.5128403332033691
Margaret_Ayer_Barnes,1886,False,62311,452,81,Margaret Ayer Barnes,0.5126165436970987
Adelina_Domingues,1888,False,38915,479,86,Adelina Domingues,0.5121663799458978
Monte_Attell,1885,False,53372,261,133,Monte Attell,0.5119460092641801
Waldemar_Bonsels,1880,False,46925,595,71,Waldemar Bonsels,0.5119197538041521
Papa_Celestin,1884,False,43540,507,80,Papa Celestin,0.5119079927048934
Wladimir_Burliuk,1886,False,46260,381,96,Wladimir Burliuk,0.5113130234399137
John_Murray_Anderson,1886,False,42665,489,81,John Murray Anderson,0.5111273237459674
Royal_E._Ingersoll,1883,False,58295,719,60,Royal E. Ingersoll,0.5111088704918696
Ion_Inculeț,1884,False,92145,365,84,Ion Inculeț,0.5109678717382508
Harold_Geiger,1884,False,48773,349,100,Harold Geiger,0.5105578971095719
Forrest_Taylor,1883,False,63545,477,74,Forrest Taylor,0.5103159697412843
Frederick_Lane,1888,False,64173,417,81,Frederick Lane,0.5102831005563172
Sylvia_Ashton,1880,False,42767,300,117,Sylvia Ashton,0.5100090631568147
Elmer_Fowler_Stone,1887,False,49347,355,97,Elmer Fowler Stone,0.5100054140033502
Jean_Alexandre_Barré,1880,False,40436,870,57,Jean Alexandre Barré,0.5096401658270335
Eleonore_Baur,1885,False,44992,612,66,Eleonore Baur,0.5086989621707029
Leonid_Kulik,1883,False,39571,539,73,Leonid Kulik,0.5084585686788635
Carlo_Bergamini_(admiral),1888,False,39306,513,75,Carlo Bergamini (admiral),0.5081588769479096
David_Powell_(actor),1883,False,39184,340,102,David Powell (actor),0.5080996427352017
Marie_Vassilieff,1884,False,43674,425,83,Marie Vassilieff,0.5080051870753672
Ants_Piip,1884,False,59480,309,99,Ants Piip,0.5078676365425012
"George_Monckton-Arundell,_8th_Viscount_Galway",1882,False,69256,392,79,"George Monckton-Arundell, 8th Viscount Galway",0.5078550021858677
Charles_Reidpath,1889,False,106930,331,81,Charles Reidpath,0.5073051854954014
Olaf_M._Hustvedt,1886,False,82737,353,81,Olaf M. Hustvedt,0.5071593335159088
Dorothy_Campbell,1883,False,49781,208,148,Dorothy Campbell,0.5059271807637131
Aubrey_Faulkner,1881,False,53741,328,92,Aubrey Faulkner,0.5059005431619679
Essington_Lewis,1881,False,56903,398,78,Essington Lewis,0.5058170586581479
Gustav_Herglotz,1881,False,65702,475,67,Gustav Herglotz,0.5057338440990263
Kaarel_Eenpalu,1888,False,60718,296,96,Kaarel Eenpalu,0.5052469767715113
Frederick_J._Horne,1880,False,124671,370,69,Frederick J. Horne,0.5050547166321945
"John_Rodgers_(naval_officer,_World_War_I)",1881,False,47340,491,69,"John Rodgers (naval officer, World War I)",0.5048556855355716
Frederick_Hawksworth,1884,False,45686,395,80,Frederick Hawksworth,0.5044503702913321
Boshirō_Hosogaya,1888,False,49599,426,74,Boshirō Hosogaya,0.50420030827015
Robert_L._Thornton,1880,False,34072,431,79,Robert L. Thornton,0.5035461648027121
Richard_Cramer,1889,False,36734,578,64,Richard Cramer,0.5033356039631092
Vean_Gregg,1885,False,61813,288,93,Vean Gregg,0.5031121269963059
H.N._Werkman,1882,False,55622,419,71,Hendrik Nicolaas Werkman,0.5029064699353742
Edward_Hanson,1889,False,85649,426,64,Edward Hanson,0.5026062965542549
Petros_Voulgaris,1884,False,211448,290,71,Petros Voulgaris,0.5023372799674735
Walden_L._Ainsworth,1886,False,56020,434,68,Walden L. Ainsworth,0.5020475668372979
Nishizō_Tsukahara,1887,False,52385,472,65,Nishizō Tsukahara,0.501799087419622
T._F._O'Rahilly,1883,False,39237,447,71,T. F. O'Rahilly,0.5013362020024408
Bernard_Rawlings_(Royal_Navy_officer),1889,False,38454,481,68,Bernard Rawlings (Royal Navy officer),0.501336125613211
Henri_Fabre,1882,False,39496,471,68,Henri Fabre,0.5009817324893516
John_R._Sinnock,1888,False,44465,626,56,John R. Sinnock,0.5008386237082775
Syed_Zafarul_Hasan,1885,False,32536,467,71,Syed Zafarul Hasan,0.5006575997538123
Heinrich_Barkhausen,1881,False,45942,369,76,Heinrich Barkhausen,0.49996951088959285
Harry_Antrim,1884,False,38579,660,55,Harry Antrim,0.499862293858934
Edna_Goodrich,1883,False,49846,322,82,Edna Goodrich,0.4995666575944171
Samuel_Berger_(boxer),1884,False,63154,321,77,Samuel Berger (boxer),0.4990326566633916
Jinichi_Kusaka,1888,False,53408,709,49,Jinichi Kusaka,0.4989020808049824
Kanoko_Okamoto,1889,False,45403,258,99,Kanoko Okamoto,0.49851234230398067
Tringe_Smajli,1880,False,48637,267,94,Tringe Smajli,0.49839518711142095
Doris_Keane,1881,False,38864,363,76,Doris Keane,0.49769074295090027
F._Burrall_Hoffman,1882,False,44875,271,93,F. Burrall Hoffman,0.4976841847623964
Jacques_Majorelle,1886,False,37504,485,63,Jacques Majorelle,0.49764013093618276
Charles_Reisner,1887,False,43427,545,56,Charles Reisner,0.49668256103473757
Maurice_Boyau,1888,False,56753,276,83,Maurice Boyau,0.49595519718602155
Pieter_Voltelyn_Graham_van_der_Byl,1889,False,59987,195,113,Pieter Voltelyn Graham van der Byl,0.49547775542246164
Reginald_Barker,1886,False,42127,348,73,Reginald Barker,0.4953354086890632
Arthur_L._Bristol,1886,False,54385,282,81,Arthur L. Bristol,0.495265134055808
Ernest_Tyldesley,1889,False,58709,324,71,Ernest Tyldesley,0.4949924883815841
Margarita_Fischer,1886,False,43727,313,77,Margarita Fischer,0.49452680695365947
Heinrich_Schlusnus,1888,False,35502,362,72,Heinrich Schlusnus,0.4942241699712736
Anton_Köllisch,1888,False,33405,887,44,Anton Köllisch,0.49369644863398376
Oliver_Kirk,1884,False,87056,264,74,Oliver Kirk,0.49335818684132804
Eduard_Künneke,1885,False,40505,325,74,Eduard Künneke,0.4932675007377895
Alfred_Francis_Blakeney_Carpenter,1881,False,52060,248,87,Alfred Carpenter,0.4931940902189452
Marion_Leonard,1881,False,38075,416,63,Marion Leonard,0.493147896638384
Anne_Bauchens,1882,False,49073,435,58,Anne Bauchens,0.49304576758662444
Reuvein_Margolies,1889,False,46955,261,84,Reuvein Margolies,0.49258554416541794
Giulio_Gavotti,1882,False,37559,568,52,Giulio Gavotti,0.49250404645897167
Zoë_Akins,1886,False,52938,145,153,Zoe Akins,0.4920822809100745
Ernest_Palmer_(American_cinematographer),1885,False,54144,386,60,Ernest Palmer (American cinematographer),0.4919864704559605
Edwin_Balmer,1883,False,43803,316,72,Edwin Balmer,0.49189979783822596
George_Roby_Dempster,1887,False,47931,360,64,George Roby Dempster,0.4916756090589605
George_McMillin,1889,False,75638,329,62,George McMillin,0.49154579675648646
Frank_Foster_(cricketer),1889,False,48489,272,78,Frank Foster (cricketer),0.49124224336937117
Rai_Rajeshwar_Bali,1889,False,33074,164,145,Rajeshwar Bali,0.4909713419480793
Ado_Birk,1883,False,49000,219,93,Ado Birk,0.4906288171601994
Margit_Slachta,1884,False,47422,284,73,Margit Slachta,0.4896562869888686
Armand_J._Piron,1888,False,38818,321,69,Armand J. Piron,0.4892935009482373
Robert_G._Fowler,1884,False,49313,191,103,Robert G. Fowler,0.489287436540612
Tom_Brown_(trombonist),1888,False,38218,335,67,Tom Brown (trombonist),0.48920238031420393
Edgar_Church,1888,False,30195,322,72,Edgar Church,0.4886810451210798
Gadicherla_Harisarvottama_Rao,1883,False,36803,301,72,Gadicherla Harisarvottama Rao,0.4884963466237763
Doris_Blackburn,1889,False,47069,271,73,Doris Blackburn,0.48795411399227234
Takeo_Itō,1889,False,46274,191,100,Takeo Itō,0.487552612077697
Channing_Pollock_(writer),1880,False,45006,327,63,Channing Pollock (writer),0.4872052901556584
Charles_Christie,1880,False,28346,363,64,Charles Christie,0.4865481966511036
Rudolf_Ramek,1881,False,55251,291,63,Rudolf Ramek,0.48530370673478496
Suzanne_Bianchetti,1889,False,37781,246,78,Suzanne Bianchetti,0.48518962085607664
Paul_Pilgrim,1883,False,97025,232,67,Paul Pilgrim,0.48517363130393976
Arthur_Borton,1883,False,49189,187,94,Arthur Borton,0.48494358326984893
Murray_Kinnell,1889,False,35323,474,50,Murray Kinnell,0.4847393917139819
Anna_Rüling,1880,False,44413,384,54,Anna Rüling,0.4847124712810277
E._L._Grant_Watson,1885,False,43180,228,79,E. L. Grant Watson,0.4842921408492246
John_H._Hoover,1887,False,48367,269,67,John H. Hoover,0.4841680773999976
Cliff_Sterrett,1883,False,49356,286,63,Cliff Sterrett,0.4836560649956803
Forrest_Smithson,1884,False,86111,217,69,Forrest Smithson,0.48300302282522195
Jesse_Pennington,1883,False,36495,375,55,Jesse Pennington,0.48295631422632596
Julio_Lozano_Díaz,1885,False,45596,286,63,Julio Lozano Díaz,0.48289933144502684
Zengo_Yoshida,1885,False,47935,491,44,Zengo Yoshida,0.4819186242496773
Antoni_Łomnicki,1881,False,33677,264,70,Antoni Łomnicki,0.481892416837119
Godfrey_Chevalier,1889,False,45881,236,71,Godfrey Chevalier,0.48161321289958375
Ugo_Pasquale_Mifsud,1889,False,43073,313,58,Ugo Pasquale Mifsud,0.48146553229187533
Gleb_W._Derujinsky,1888,False,50553,222,72,Gleb W. Derujinsky,0.4809191348959517
Helen_Hoyt,1887,False,46937,209,77,Helen Hoyt,0.48081551379317233
Robert_C._Giffen,1886,False,55442,326,53,Robert C. Giffen,0.48077713511249653
Ewart_Astill,1888,False,43691,240,69,Ewart Astill,0.4805068656229701
Otto_Froitzheim,1884,False,52894,231,68,Otto Froitzheim,0.48030789108489386
Johanna_Westerdijk,1883,False,61538,255,61,Johanna Westerdijk,0.4802931651828629
Louise_Schroeder,1887,False,53108,300,55,Louise Schroeder,0.47951998456488115
George_Kenner,1888,False,59164,211,68,George Kenner,0.47804062830427224
Amedeo_Maiuri,1886,False,34525,416,47,Amedeo Maiuri,0.47755537169588047
Dimitrios_Semsis,1883,False,50558,183,79,Dimitrios Semsis,0.47750976998307154
Porfirio_Barba-Jacob,1883,False,35389,484,43,Porfirio Barba-Jacob,0.47733611533368125
Heikki_Ritavuori,1880,False,43064,245,63,Heikki Ritavuori,0.47707824725745773
Charlie_Parker_(cricketer),1882,False,46540,250,61,Charlie Parker (cricketer),0.4770503983261828
"Max_Moody,_Sr.",1883,False,127113,65,305,Maxey Dell Moody,0.4769560436989703
George_Bagration_of_Mukhrani,1884,False,35047,541,40,George Bagration of Mukhrani,0.47623661078376683
G._Murray_Hulbert,1881,False,46749,213,68,George Murray Hulbert,0.4762340970537407
Alice_Hollister,1886,False,39559,311,53,Alice Hollister,0.4761145697622536
William_Whitworth,1884,False,41219,275,56,William Whitworth,0.47516180119179563
Dorothy_Donnelly,1880,False,35086,379,47,Dorothy Donnelly,0.4749963847789969
Markus_Reiner,1886,False,40317,296,53,Markus Reiner,0.4747203630982718
MacGillivray_Milne,1882,False,65270,299,48,MacGillivray Milne,0.4745162983937203
Eduard_C._Lindeman,1885,False,41601,453,41,Eduard C. Lindeman,0.4744618600540675
Thomas_Quinlan_(impresario),1881,False,50579,141,96,Thomas Quinlan (impresario),0.47443571447471033
R._Williams_Parry,1884,False,34556,373,46,R. Williams Parry,0.4732711146425558
Olav_Aukrust,1883,False,40157,200,68,Olav Aukrust,0.4725142300780454
Louis_Wagner,1882,False,38601,301,50,Louis Wagner,0.47200257505400467
Armand_Annet,1888,False,29616,346,48,Armand Annet,0.47168645108871293
María_Beatriz_del_Rosario_Arroyo,1884,False,105434,103,111,María Beatriz del Rosario Arroyo,0.47164796165367034
Stuart_Paton,1883,False,36005,202,67,Stuart Paton,0.47121363471933414
Alberto_di_Jorio,1884,False,38327,302,49,Alberto di Jorio,0.47104354508557755
Yitzhak_Baer,1888,False,43517,281,49,Yitzhak Baer,0.46994381529262913
Orrick_Johns,1887,False,44907,171,71,Orrick Glenday Johns,0.46947233481342365
Léon_Noël,1888,False,42274,307,46,Léon Noël,0.469304401817752
Donald_B._Beary,1888,False,74591,243,48,Donald B. Beary,0.46886247568328854
Valli_Valli,1882,False,35342,186,68,Valli Valli,0.46863376928502903
C._E._Woolman,1889,False,32782,689,32,Collett E. Woolman,0.46848338532351574
Hawthorne_C._Gray,1889,False,59443,252,48,Hawthorne C. Gray,0.46815773826658347
Jacob_Fichman,1881,False,45242,223,55,Jacob Fichman,0.46811583831117115
Benjamin_(Fedchenkov),1880,False,50475,163,70,Benjamin (Fedchenkov),0.468089521551527
Leonie_von_Meusebach–Zesch,1882,False,150859,174,54,Leonie von Meusebach–Zesch,0.46807797491038283
Isabel_J._Cox,1882,False,33896,213,60,Isabel Meighen,0.4677595236743634
Fritz_August_Breuhaus_de_Groot,1883,False,35644,201,62,Fritz August Breuhaus,0.46761477079896946
Harry_Sunderland,1889,False,34304,207,61,Harry Sunderland,0.46759180752332447
Alberto_Gerchunoff,1883,False,38263,170,69,Alberto Gerchunoff,0.4666068160613407
Claude_Roger-Marx,1888,False,42498,224,53,Claude Roger-Marx,0.46598884061781554
Violet_MacMillan,1887,False,36424,290,45,Violet MacMillan,0.46505269561826956
Armas_Launis,1884,False,42941,165,65,Armas Launis,0.4640537938035638
Michael_Somogyi,1883,False,38776,272,45,Michael Somogyi,0.46362722169710147
Rachel_Katznelson-Shazar,1885,False,48950,245,46,Rachel Katznelson-Shazar,0.46344664945726793
Rafael_Arévalo_Martínez,1884,False,64313,236,45,Rafael Arévalo Martínez,0.463446256858753
Nicholas_Charnetsky,1884,False,49270,175,59,Nicholas Charnetsky,0.4633491624867146
Walther_Stampfli,1884,False,54053,186,55,Walther Stampfli,0.4632694048013396
Kirk_Bryan_(geologist),1888,False,35454,202,55,Kirk Bryan (geologist),0.46245285927915625
Mike_Brady_(golfer),1887,False,39479,246,46,Mike Brady (golfer),0.46167087909346116
Giuseppe_Tellera,1882,False,34840,407,35,Giuseppe Tellera,0.4610250076407221
Frank_Tarrant,1880,False,43099,197,52,Frank Tarrant,0.46079214799945967
Albert_Orsborn,1886,False,31758,267,44,Albert Orsborn,0.46007877392088087
Otto_Dowling,1881,False,59020,211,46,Otto Dowling,0.46005806748727424
Sadayoshi_Tanabe,1888,False,38854,156,63,Sadayoshi Tanabe,0.45971817409438975
Liberato_Pinto,1880,False,51305,174,54,Liberato Pinto,0.45957349761590116
Naum_Torbov,1880,False,33028,147,68,Naum Torbov,0.45906060580301133
Aurelio_Mosquera,1883,False,48177,215,46,Aurelio Mosquera,0.4589780889113104
Wilhelm_Fritz_von_Roettig,1888,False,27074,990,25,Wilhelm Fritz von Roettig,0.45855589618224446
Percy_C._Mather,1882,False,44131,135,68,Percy C. Mather,0.4582874142530019
Kojo_Tovalou_Houénou,1887,False,65309,217,42,Kojo Tovalou Houénou,0.45731597065421464
John_van_Melle,1887,False,32945,167,57,John van Melle,0.4565403842040297
Marcel-Bruno_Gensoul,1880,False,34971,447,31,Marcel-Bruno Gensoul,0.45647557458329213
George_Shiels,1886,False,31655,219,46,George Shiels,0.455863792456927
Luis_Cluzeau_Mortet,1888,False,37571,147,61,Luis Cluzeau Mortet,0.4558034098556878
Raymond_DeWalt,1885,False,28280,501,30,Raymond DeWalt,0.45543198853188516
Herbert_Strudwick,1880,False,33922,215,45,Herbert Strudwick,0.4548290634333185
Hermann_Obrecht,1882,False,33266,202,47,Hermann Obrecht,0.45464048429765164
Merrill_C._Meigs,1883,False,31961,266,39,Merrill C. Meigs,0.4538884302320336
Jessie_Aspinall,1880,False,38080,125,67,Jessie Aspinall,0.4533056473239995
Edwin_Keppel_Bennett,1887,False,33196,168,52,Edwin Keppel Bennett,0.4528154756019566
Benjamin_McCandlish,1886,False,57193,163,48,Benjamin McCandlish,0.45273732094997887
Masao_Maruyama_(Japanese_Army_officer),1889,False,47047,203,42,Masao Maruyama (Japanese Army officer),0.4523964646923576
Richard_S._Edwards,1885,False,57245,259,35,Richard S. Edwards,0.45231002827504196
Gustavo_Jiménez,1886,False,46134,200,42,Gustavo Jiménez,0.4517344127300421
Frank_Christian_(trumpeter),1887,False,27379,205,45,Frank Christian (trumpeter),0.4512980337441634
Robert_McKeen,1884,False,97233,104,64,Robert McKeen,0.4512742636545989
William_A._Glassford,1886,False,54156,268,33,William A. Glassford,0.44964249149295793
Tomoshige_Samejima,1889,False,46748,238,36,Tomoshige Samejima,0.4495661497194767
Zeng_Junchen,1888,False,62469,146,48,Zeng Junchen,0.44937567024457664
Richard_Maury,1882,False,48214,244,35,Richard Maury,0.4490836686028918
Mariano_Andreu,1888,False,33833,222,39,Mariano Andreu,0.4487737274140423
Siegmund_Glücksmann,1884,False,40088,149,49,Siegmund Glücksmann,0.4474471946440773
Tenby_Davies,1884,False,28684,119,64,Tenby Davies,0.4470105237742698
Tore_Ørjasæter,1886,False,58294,176,40,Tore Ørjasæter,0.44688471842922
René_Cresté,1881,False,40872,167,44,René Cresté,0.4467783895828706
Manuel_Pérez_y_Curis,1884,False,30538,131,57,Manuel Pérez y Curis,0.4467183946233257
Vin_Coutie,1881,False,82535,131,45,Vin Coutie,0.44442888093636
Campbell_Tait,1886,False,39228,167,42,Campbell Tait,0.4442309869411947
Zerna_Sharp,1889,False,29348,251,34,Zerna Sharp,0.44415100985745165
Jacobo_Palm,1887,False,31576,179,41,Jacobo Palm,0.4435983198617
Pete_Wendling,1888,False,26684,186,41,Pete Wendling,0.44339369619343805
Ioannis_Demestichas,1882,False,76994,191,34,Ioannis Demestichas,0.44339332701499007
Ernest_Pingoud,1887,False,47351,213,34,Ernest Pingoud,0.44315828696287196
John_Morton-Finney,1889,False,28747,143,49,John Morton-Finney,0.44306411365531884
Andrej_Bicenko,1886,False,32464,156,44,Andrej Bicenko,0.4424220475326501
William_Douglas_Cook,1884,False,49002,217,33,William Douglas Cook,0.4424123189978034
Carroll_McComas,1886,False,37537,138,47,Carroll McComas,0.4422029999503061
Lucy_Tayiah_Eads,1888,False,36820,216,34,Lucy Tayiah Eads,0.44153420531919935
Nicolette_Bruining,1886,False,44789,153,41,Nicolette Bruining,0.4411008953211888
Stephen_Galatti,1888,False,34855,181,38,Stephen Galatti,0.4411000006469279
Leo_Otis_Colbert,1883,False,55322,200,33,Leo Otis Colbert,0.44079286409963797
John_Willard_(playwright),1885,False,36307,187,36,John Willard (playwright),0.4397970442091317
Heisuke_Abe,1886,False,36409,259,29,Heisuke Abe,0.43810857056557945
George_H._Plympton,1889,False,33133,370,25,George H. Plympton,0.43804618207067214
"Charles_M._Cooke,_Jr.",1886,False,51640,350,24,"Charles M. Cooke, Jr.",0.43761799525323397
Shiro_Kawase,1889,False,72374,222,28,Shiro Kawase,0.4368663773609997
Peter_Bocage,1887,False,32885,175,36,Peter Bocage,0.4367998824496249
Jessie_Arms_Botke,1883,False,43016,267,27,Jessie Arms Botke,0.43616556328267553
Raymond_Stanton_Patton,1882,False,61829,239,27,Raymond Stanton Patton,0.4357735272915119
Z._D._Mangoaela,1883,False,37193,104,52,Z. D. Mangoaela,0.435485142368914
Elisabeth_Tamm,1880,False,33027,162,36,Elisabeth Tamm,0.43426953593727535
Royal_H._Weller,1881,False,37593,134,40,Royal Hurlburt Weller,0.433786325334622
Richard_C._Saufley,1884,False,36964,198,30,Richard C. Saufley,0.43215489897098214
Clara_Nordström,1886,False,31530,154,35,Clara Nordström,0.4307889830265953
Robert_James_Hudson,1885,False,47815,147,33,Robert James Hudson,0.429527861052075
Nicholas_H._Heck,1882,False,86425,150,30,Nicholas H. Heck,0.4294498582402591
Charles_Armijo_Woodruff,1884,False,46958,241,25,Charles Armijo Woodruff,0.4293744802897011
Oscar_A._C._Lund,1885,False,31334,113,42,Oscar A. C. Lund,0.4282370857950605
Nathan_Post,1881,False,53233,149,31,Nathan Post,0.4275545658988273
Reşit_Süreyya_Gürsey,1889,False,35098,102,43,Reşit Süreyya Gürsey,0.4262368611436623
Emma_Asson,1889,False,33772,162,30,Emma Asson,0.4251272618147744
Georges_Imbert,1884,False,29986,188,28,Georges Imbert,0.42511593702846034
William_D._Francis,1889,False,33348,118,37,William D. Francis,0.4245785584618697
Tutt_Brothers,1882,False,39916,143,31,Tutt Brothers,0.42402676612234746
Margaret_Henley,1888,False,30964,526,18,Margaret Henley,0.42349457187283596
Avra_Theodoropoulou,1880,False,64794,140,29,Avra Theodoropoulou,0.4233292909681155
Chaturbhuj_Sahay,1883,False,42115,102,39,Chaturbhuj Sahay,0.4233199677423764
Rudolph_Palm,1880,False,31917,144,31,Rudolph Palm,0.4225312281108493
Marius_Canard,1888,False,34444,188,25,Marius Canard,0.41983924665235833
Kristian_Hellström,1880,False,37544,117,33,Kristian Hellström,0.41973262411815754
Michael_Considine,1885,False,37038,174,25,Michael Considine,0.4180734838563474
William_R._Munroe,1886,False,40209,170,25,William R. Munroe,0.4179772502760468
Muriel_Hazel_Wright,1889,False,41235,111,32,Muriel Hazel Wright,0.41703518591528566
Aketo_Nakamura,1889,False,31759,173,25,Aketo Nakamura,0.41673494449012505
George_Barker_(painter),1882,False,28340,135,29,George Barker (painter),0.4160341853466186
Alessandro_Guidoni,1880,False,38159,189,23,Alessandro Guidoni,0.41589455796392616
Gengo_Hyakutake,1882,False,40464,247,20,Gengo Hyakutake,0.4150209039891757
T._Sathasiva_Iyer,1882,False,38892,74,43,T. Sathasiva Iyer,0.41391510170826895
Ferenc_Talányi,1883,False,31200,130,26,Ferenc Talányi,0.40979740139034254
Andrew_Watson_Myles,1884,False,30479,111,28,Andrew Watson Myles,0.40816869092908303
John_Palm,1885,False,31540,129,25,John Palm,0.4075182109427827
Louise_Marion_Bosworth,1881,False,31200,97,30,Louise Marion Bosworth,0.4069674605127967
Nikolai_Cholodny,1882,False,44758,96,28,Nikolai Cholodny,0.40574576584517846
István_Kühár,1887,False,36937,117,25,István Kühár,0.40544368022234833
Beatrice_Kerr,1887,False,38065,215,18,Beatrice Kerr,0.4040770952127966
Arch_McCarthy,1881,False,36185,92,28,Arch McCarthy,0.40272880822567575
Frank_Burke_(baseball),1880,False,31593,124,22,Frank Burke (baseball),0.3992105086241456
Dutch_Sterrett,1889,False,32006,100,25,Dutch Sterrett,0.39910144290793276
Cedric_Holland,1889,False,71902,301,14,Cedric Holland,0.3984263331853361
Charles_Exeter_Devereux_Crombie,1880,False,31237,144,20,Charles Exeter Devereux Crombie,0.3981773986614729
Olivia_Nordgren,1880,False,26609,80,28,Olivia Nordgren,0.39538695812424407
James_Lightbody,1882,False,163350,26,102,Jim Lightbody,0.3939780095146978
Ferenc_Oslay,1883,False,41908,113,20,Ferenc Oslay,0.39272437778460695
John_H._Hester,1886,False,49263,153,16,John H. Hester,0.38885541572049087
Wyncie_King,1884,False,39111,99,20,Wyncie King,0.3880082632584525
"Zdzisław_Żygulski,_Sr.",1888,False,36688,75,23,Zdzisław Żygulski (senior),0.38547354502353914
M._Louise_Gross,1884,False,27279,84,22,M. Louise Gross,0.3852826230187578
Ethel_May_Halls,1882,False,25854,95,18,Ethel May Halls,0.3779748121010689
Lee_W._Stanley,1885,False,28304,76,20,Lee W. Stanley,0.37698999244152853
Harry_A._Marmer,1885,False,43161,153,13,Harry A. Marmer,0.3737419253322582
Paltiel_Daykan,1885,False,29586,101,16,Paltiel Daykan,0.37372549090089924
Mario_Talavera,1885,False,33358,143,13,Mario Talavera,0.3704940455354256
George_Gaul,1885,False,28493,69,18,George Gaul,0.3679675017626332
Friedrich_Lahrs,1880,False,33999,196,11,Friedrich Lahrs,0.365694169836834
Antonina_De_Angelis,1880,False,45209,88,14,Antonina De Angelis,0.3636553247961651
Ola_Solberg,1886,False,29770,81,15,Ola Solberg,0.36302830323814306
Dimitrana_Ivanova,1881,False,30219,105,12,Dimitrana Ivanova,0.35619677202179006
Loyal_Blaine_Aldrich,1884,False,38061,109,11,Loyal Blaine Aldrich,0.3522625583818295
William_T._Bovie,1882,False,39700,468,7,William T. Bovie,0.3411407294715977
James_P._Boyle,1885,False,27828,83,10,James P. Boyle,0.3365473597610911
Herb_Byrne,1887,False,30898,85,9,Herb Byrne,0.32988363901322726
Oswald_Short,1883,False,35706,220,7,Oswald Short,0.3288725440869128
Doris_Große,1884,False,28676,57,8,Doris Große,0.31015686562797273
Bede_Fanning,1885,False,35293,82,6,Bede Fanning,0.2957135091485828
Catherine_Schleimer-Kill,1884,False,23867,60,5,Catherine Schleimer-Kill,0.2708290904017243
Chen_Xiefen,1883,False,22813,53,3,Chen Xiefen,0.21254732108263832
Thakur_Anukulchandra,1888,False,158720,0,355,Anukulchandra Chakravarty,0.13132745474387153
"Enea_Bossi,_Sr.",1888,False,93298,0,118,Enea Bossi Sr.,0.12877220143164075
Fritz_Leiber_(Sr.),1882,False,50806,0,99,Fritz Leiber (actor),0.12794399999780542
Sōjin_Kamiyama,1884,False,32544,0,91,Sojin (actor),0.1274145850531248
Ya'akov_Cohen_(writer),1881,False,39030,0,48,Ya'akov Cahan,0.12556188370808286
Edgar_Stehli,1884,False,28816,0,6,Edgar Stehli,0.11124197878406845
Luiza_Zavloschi,1883,False,23624,0,6,Luiza Zavloschi,0.11112939190475224
